    4    4    1    1
  0.1050402E+03  0.3641080E-09  0.4543796E-09  0.2539606E-08  0.2000000E-15
  1.000000000000000E-004
  CAR 
 GeS                                     
     20    204    144
 
  0.0000000E+00  0.0000000E+00  0.0000000E+00  0.4901961E-02
    1      -17.189841   1.000000
    2      -17.189841   1.000000
    3      -15.561716   1.000000
    4      -15.561716   1.000000
    5      -10.874918   1.000000
    6      -10.874918   1.000000
    7       -8.205306   1.000000
    8       -8.205306   1.000000
    9       -7.445094   1.000000
   10       -7.445094   1.000000
   11       -6.673700   1.000000
   12       -6.673700   1.000000
   13       -6.003431   1.000000
   14       -6.003431   1.000000
   15       -4.763496   1.000000
   16       -4.763496   1.000000
   17       -4.690186   1.000000
   18       -4.690186   1.000000
   19       -3.344123   1.000000
   20       -3.344123   1.000000
   21       -1.465857   0.000000
   22       -1.465857   0.000000
   23       -0.343933   0.000000
   24       -0.343933   0.000000
   25        0.188173   0.000000
   26        0.188173   0.000000
   27        1.114612   0.000000
   28        1.114613   0.000000
   29        1.190933   0.000000
   30        1.190945   0.000000
   31        1.716656   0.000000
   32        1.716698   0.000000
   33        1.889255   0.000000
   34        1.889306   0.000000
   35        2.566631   0.000000
   36        2.566674   0.000000
   37        2.607391   0.000000
   38        2.607414   0.000000
   39        2.881571   0.000000
   40        2.881573   0.000000
   41        3.412485   0.000000
   42        3.412548   0.000000
   43        3.777010   0.000000
   44        3.777034   0.000000
   45        4.635544   0.000000
   46        4.635548   0.000000
   47        4.957491   0.000000
   48        4.957529   0.000000
   49        5.002576   0.000000
   50        5.002599   0.000000
   51        5.240412   0.000000
   52        5.240431   0.000000
   53        5.819232   0.000000
   54        5.819234   0.000000
   55        6.127141   0.000000
   56        6.127141   0.000000
   57        6.661292   0.000000
   58        6.661292   0.000000
   59        6.873817   0.000000
   60        6.873848   0.000000
   61        7.240802   0.000000
   62        7.240853   0.000000
   63        7.683317   0.000000
   64        7.683321   0.000000
   65        7.854131   0.000000
   66        7.854141   0.000000
   67        8.364131   0.000000
   68        8.364138   0.000000
   69        8.704019   0.000000
   70        8.704041   0.000000
   71        8.809026   0.000000
   72        8.809026   0.000000
   73        8.997781   0.000000
   74        8.997819   0.000000
   75        9.115536   0.000000
   76        9.115580   0.000000
   77        9.269226   0.000000
   78        9.269263   0.000000
   79        9.391833   0.000000
   80        9.391908   0.000000
   81        9.607982   0.000000
   82        9.607996   0.000000
   83        9.664676   0.000000
   84        9.664740   0.000000
   85        9.911156   0.000000
   86        9.911212   0.000000
   87       10.070320   0.000000
   88       10.070363   0.000000
   89       10.393672   0.000000
   90       10.393731   0.000000
   91       10.477475   0.000000
   92       10.477481   0.000000
   93       10.616525   0.000000
   94       10.616525   0.000000
   95       10.773618   0.000000
   96       10.773694   0.000000
   97       11.001493   0.000000
   98       11.001518   0.000000
   99       11.718597   0.000000
  100       11.718613   0.000000
  101       11.732307   0.000000
  102       11.732348   0.000000
  103       11.797576   0.000000
  104       11.797576   0.000000
  105       12.073836   0.000000
  106       12.073894   0.000000
  107       12.343473   0.000000
  108       12.343500   0.000000
  109       12.400428   0.000000
  110       12.400474   0.000000
  111       12.746438   0.000000
  112       12.746455   0.000000
  113       12.762141   0.000000
  114       12.762169   0.000000
  115       13.022399   0.000000
  116       13.022441   0.000000
  117       13.149202   0.000000
  118       13.149242   0.000000
  119       13.296535   0.000000
  120       13.296588   0.000000
  121       13.317923   0.000000
  122       13.317991   0.000000
  123       13.365021   0.000000
  124       13.365061   0.000000
  125       13.403783   0.000000
  126       13.403816   0.000000
  127       13.585835   0.000000
  128       13.585894   0.000000
  129       13.923643   0.000000
  130       13.923683   0.000000
  131       14.169994   0.000000
  132       14.170005   0.000000
  133       14.194327   0.000000
  134       14.194357   0.000000
  135       14.459690   0.000000
  136       14.460545   0.000000
  137       14.487959   0.000000
  138       14.488223   0.000000
  139       14.607805   0.000000
  140       14.610296   0.000000
  141       14.678297   0.000000
  142       14.681100   0.000000
  143       14.828634   0.000000
  144       14.830066   0.000000
 
  0.1000000E-01  0.0000000E+00  0.0000000E+00  0.4901961E-02
    1      -17.189098   1.000000
    2      -17.189026   1.000000
    3      -15.561383   1.000000
    4      -15.561161   1.000000
    5      -10.875606   1.000000
    6      -10.875270   1.000000
    7       -8.207015   1.000000
    8       -8.206887   1.000000
    9       -7.444407   1.000000
   10       -7.444374   1.000000
   11       -6.674600   1.000000
   12       -6.671837   1.000000
   13       -6.007713   1.000000
   14       -6.003977   1.000000
   15       -4.787190   1.000000
   16       -4.742035   1.000000
   17       -4.713739   1.000000
   18       -4.667206   1.000000
   19       -3.344679   1.000000
   20       -3.344351   1.000000
   21       -1.465027   0.000000
   22       -1.464975   0.000000
   23       -0.339343   0.000000
   24       -0.338340   0.000000
   25        0.182877   0.000000
   26        0.195077   0.000000
   27        1.105873   0.000000
   28        1.107743   0.000000
   29        1.188375   0.000000
   30        1.202831   0.000000
   31        1.717643   0.000000
   32        1.717833   0.000000
   33        1.890349   0.000000
   34        1.890603   0.000000
   35        2.567476   0.000000
   36        2.567956   0.000000
   37        2.608356   0.000000
   38        2.608722   0.000000
   39        2.874484   0.000000
   40        2.879773   0.000000
   41        3.413517   0.000000
   42        3.413786   0.000000
   43        3.777914   0.000000
   44        3.778377   0.000000
   45        4.629978   0.000000
   46        4.632669   0.000000
   47        4.954477   0.000000
   48        4.955398   0.000000
   49        5.002867   0.000000
   50        5.002996   0.000000
   51        5.230974   0.000000
   52        5.233953   0.000000
   53        5.815216   0.000000
   54        5.817034   0.000000
   55        6.126952   0.000000
   56        6.128188   0.000000
   57        6.673738   0.000000
   58        6.677845   0.000000
   59        6.875301   0.000000
   60        6.875331   0.000000
   61        7.242478   0.000000
   62        7.243259   0.000000
   63        7.687978   0.000000
   64        7.688406   0.000000
   65        7.856826   0.000000
   66        7.857539   0.000000
   67        8.359532   0.000000
   68        8.362015   0.000000
   69        8.703395   0.000000
   70        8.703718   0.000000
   71        8.809799   0.000000
   72        8.810254   0.000000
   73        9.001781   0.000000
   74        9.002760   0.000000
   75        9.120505   0.000000
   76        9.121222   0.000000
   77        9.272050   0.000000
   78        9.272171   0.000000
   79        9.393112   0.000000
   80        9.393170   0.000000
   81        9.615565   0.000000
   82        9.615974   0.000000
   83        9.663959   0.000000
   84        9.664521   0.000000
   85        9.912593   0.000000
   86        9.912909   0.000000
   87       10.070443   0.000000
   88       10.070763   0.000000
   89       10.394888   0.000000
   90       10.395011   0.000000
   91       10.478319   0.000000
   92       10.478761   0.000000
   93       10.597921   0.000000
   94       10.598719   0.000000
   95       10.775220   0.000000
   96       10.775294   0.000000
   97       11.014672   0.000000
   98       11.016772   0.000000
   99       11.614103   0.000000
  100       11.615389   0.000000
  101       11.729234   0.000000
  102       11.729728   0.000000
  103       11.875428   0.000000
  104       11.878205   0.000000
  105       12.094682   0.000000
  106       12.095151   0.000000
  107       12.343144   0.000000
  108       12.343180   0.000000
  109       12.396281   0.000000
  110       12.400058   0.000000
  111       12.654919   0.000000
  112       12.655267   0.000000
  113       12.751425   0.000000
  114       12.751678   0.000000
  115       13.043592   0.000000
  116       13.043959   0.000000
  117       13.144611   0.000000
  118       13.144759   0.000000
  119       13.194109   0.000000
  120       13.194447   0.000000
  121       13.226806   0.000000
  122       13.226844   0.000000
  123       13.436919   0.000000
  124       13.438192   0.000000
  125       13.553014   0.000000
  126       13.553999   0.000000
  127       13.638541   0.000000
  128       13.641112   0.000000
  129       13.907966   0.000000
  130       13.909132   0.000000
  131       14.056190   0.000000
  132       14.060279   0.000000
  133       14.297487   0.000000
  134       14.303099   0.000000
  135       14.403924   0.000000
  136       14.404815   0.000000
  137       14.488164   0.000000
  138       14.489028   0.000000
  139       14.624432   0.000000
  140       14.628407   0.000000
  141       14.682508   0.000000
  142       14.684746   0.000000
  143       14.901329   0.000000
  144       14.904532   0.000000
 
  0.2000000E-01  0.0000000E+00  0.0000000E+00  0.4901961E-02
    1      -17.186794   1.000000
    2      -17.186651   1.000000
    3      -15.560163   1.000000
    4      -15.559720   1.000000
    5      -10.877334   1.000000
    6      -10.876663   1.000000
    7       -8.212023   1.000000
    8       -8.211764   1.000000
    9       -7.442317   1.000000
   10       -7.442247   1.000000
   11       -6.674577   1.000000
   12       -6.668999   1.000000
   13       -6.016777   1.000000
   14       -6.009266   1.000000
   15       -4.812322   1.000000
   16       -4.744322   1.000000
   17       -4.716297   1.000000
   18       -4.645558   1.000000
   19       -3.346021   1.000000
   20       -3.345368   1.000000
   21       -1.462486   0.000000
   22       -1.462380   0.000000
   23       -0.324673   0.000000
   24       -0.322610   0.000000
   25        0.178793   0.000000
   26        0.203511   0.000000
   27        1.081962   0.000000
   28        1.091393   0.000000
   29        1.194910   0.000000
   30        1.218357   0.000000
   31        1.720722   0.000000
   32        1.721122   0.000000
   33        1.893807   0.000000
   34        1.894294   0.000000
   35        2.570414   0.000000
   36        2.571389   0.000000
   37        2.611510   0.000000
   38        2.612179   0.000000
   39        2.858699   0.000000
   40        2.869186   0.000000
   41        3.416745   0.000000
   42        3.417288   0.000000
   43        3.781062   0.000000
   44        3.781950   0.000000
   45        4.615981   0.000000
   46        4.621288   0.000000
   47        4.945159   0.000000
   48        4.946776   0.000000
   49        5.003953   0.000000
   50        5.004160   0.000000
   51        5.208181   0.000000
   52        5.213637   0.000000
   53        5.806622   0.000000
   54        5.810435   0.000000
   55        6.126723   0.000000
   56        6.128929   0.000000
   57        6.713333   0.000000
   58        6.721192   0.000000
   59        6.879720   0.000000
   60        6.879774   0.000000
   61        7.248319   0.000000
   62        7.249940   0.000000
   63        7.702338   0.000000
   64        7.703127   0.000000
   65        7.865655   0.000000
   66        7.867080   0.000000
   67        8.349499   0.000000
   68        8.354395   0.000000
   69        8.701761   0.000000
   70        8.702446   0.000000
   71        8.813605   0.000000
   72        8.814260   0.000000
   73        9.012960   0.000000
   74        9.014744   0.000000
   75        9.135131   0.000000
   76        9.136655   0.000000
   77        9.280612   0.000000
   78        9.281000   0.000000
   79        9.396893   0.000000
   80        9.397016   0.000000
   81        9.638966   0.000000
   82        9.639903   0.000000
   83        9.662214   0.000000
   84        9.663362   0.000000
   85        9.917167   0.000000
   86        9.917775   0.000000
   87       10.070870   0.000000
   88       10.071558   0.000000
   89       10.398562   0.000000
   90       10.398839   0.000000
   91       10.481042   0.000000
   92       10.482180   0.000000
   93       10.550870   0.000000
   94       10.551511   0.000000
   95       10.780031   0.000000
   96       10.780106   0.000000
   97       11.048565   0.000000
   98       11.051618   0.000000
   99       11.474191   0.000000
  100       11.475443   0.000000
  101       11.719055   0.000000
  102       11.720153   0.000000
  103       11.933582   0.000000
  104       11.936016   0.000000
  105       12.163261   0.000000
  106       12.166029   0.000000
  107       12.338436   0.000000
  108       12.338856   0.000000
  109       12.383234   0.000000
  110       12.390385   0.000000
  111       12.495297   0.000000
  112       12.495736   0.000000
  113       12.729149   0.000000
  114       12.729192   0.000000
  115       12.892353   0.000000
  116       12.892608   0.000000
  117       13.053029   0.000000
  118       13.053238   0.000000
  119       13.151800   0.000000
  120       13.151841   0.000000
  121       13.347428   0.000000
  122       13.348797   0.000000
  123       13.454180   0.000000
  124       13.454276   0.000000
  125       13.739412   0.000000
  126       13.740298   0.000000
  127       13.756546   0.000000
  128       13.756894   0.000000
  129       13.863234   0.000000
  130       13.865279   0.000000
  131       13.964185   0.000000
  132       13.965964   0.000000
  133       14.320672   0.000000
  134       14.321874   0.000000
  135       14.382531   0.000000
  136       14.388018   0.000000
  137       14.486652   0.000000
  138       14.486962   0.000000
  139       14.687383   0.000000
  140       14.688503   0.000000
  141       14.692584   0.000000
  142       14.696448   0.000000
  143       15.051041   0.000000
  144       15.055423   0.000000
 
  0.3000000E-01  0.0000000E+00  0.0000000E+00  0.4901961E-02
    1      -17.182930   1.000000
    2      -17.182716   1.000000
    3      -15.558060   1.000000
    4      -15.557395   1.000000
    5      -10.880107   1.000000
    6      -10.879102   1.000000
    7       -8.220345   1.000000
    8       -8.219954   1.000000
    9       -7.438822   1.000000
   10       -7.438709   1.000000
   11       -6.673696   1.000000
   12       -6.665200   1.000000
   13       -6.030435   1.000000
   14       -6.019070   1.000000
   15       -4.838789   1.000000
   16       -4.771071   1.000000
   17       -4.696999   1.000000
   18       -4.625213   1.000000
   19       -3.348159   1.000000
   20       -3.347186   1.000000
   21       -1.458233   0.000000
   22       -1.458072   0.000000
   23       -0.300189   0.000000
   24       -0.296948   0.000000
   25        0.175074   0.000000
   26        0.212893   0.000000
   27        1.048457   0.000000
   28        1.069744   0.000000
   29        1.205830   0.000000
   30        1.234369   0.000000
   31        1.725938   0.000000
   32        1.726530   0.000000
   33        1.899601   0.000000
   34        1.900322   0.000000
   35        2.575433   0.000000
   36        2.576952   0.000000
   37        2.616603   0.000000
   38        2.617403   0.000000
   39        2.834700   0.000000
   40        2.850160   0.000000
   41        3.422086   0.000000
   42        3.422901   0.000000
   43        3.786436   0.000000
   44        3.787720   0.000000
   45        4.593654   0.000000
   46        4.601416   0.000000
   47        4.925800   0.000000
   48        4.927576   0.000000
   49        5.006099   0.000000
   50        5.006342   0.000000
   51        5.178990   0.000000
   52        5.185885   0.000000
   53        5.797540   0.000000
   54        5.803529   0.000000
   55        6.123880   0.000000
   56        6.126629   0.000000
   57        6.775083   0.000000
   58        6.786127   0.000000
   59        6.886966   0.000000
   60        6.887200   0.000000
   61        7.258736   0.000000
   62        7.261423   0.000000
   63        7.726153   0.000000
   64        7.727185   0.000000
   65        7.880767   0.000000
   66        7.882895   0.000000
   67        8.337225   0.000000
   68        8.344383   0.000000
   69        8.699024   0.000000
   70        8.700116   0.000000
   71        8.822222   0.000000
   72        8.822730   0.000000
   73        9.028137   0.000000
   74        9.030485   0.000000
   75        9.156657   0.000000
   76        9.158956   0.000000
   77        9.294975   0.000000
   78        9.295919   0.000000
   79        9.403214   0.000000
   80        9.403414   0.000000
   81        9.659316   0.000000
   82        9.661065   0.000000
   83        9.678793   0.000000
   84        9.680477   0.000000
   85        9.924935   0.000000
   86        9.925874   0.000000
   87       10.070970   0.000000
   88       10.072110   0.000000
   89       10.404740   0.000000
   90       10.405177   0.000000
   91       10.478962   0.000000
   92       10.486437   0.000000
   93       10.489148   0.000000
   94       10.494860   0.000000
   95       10.788070   0.000000
   96       10.788147   0.000000
   97       11.085712   0.000000
   98       11.087651   0.000000
   99       11.338896   0.000000
  100       11.341767   0.000000
  101       11.698947   0.000000
  102       11.700654   0.000000
  103       11.948804   0.000000
  104       11.950505   0.000000
  105       12.255448   0.000000
  106       12.261124   0.000000
  107       12.279846   0.000000
  108       12.281567   0.000000
  109       12.349342   0.000000
  110       12.358462   0.000000
  111       12.382329   0.000000
  112       12.383192   0.000000
  113       12.700972   0.000000
  114       12.701835   0.000000
  115       12.704180   0.000000
  116       12.705545   0.000000
  117       12.943371   0.000000
  118       12.943481   0.000000
  119       13.156909   0.000000
  120       13.157040   0.000000
  121       13.441423   0.000000
  122       13.442518   0.000000
  123       13.519189   0.000000
  124       13.521290   0.000000
  125       13.734242   0.000000
  126       13.735649   0.000000
  127       13.749170   0.000000
  128       13.752393   0.000000
  129       13.951944   0.000000
  130       13.953019   0.000000
  131       14.030150   0.000000
  132       14.033301   0.000000
  133       14.290429   0.000000
  134       14.290792   0.000000
  135       14.427227   0.000000
  136       14.429743   0.000000
  137       14.482774   0.000000
  138       14.482960   0.000000
  139       14.694583   0.000000
  140       14.695292   0.000000
  141       14.814782   0.000000
  142       14.821449   0.000000
  143       15.150863   0.000000
  144       15.190542   0.000000
 
  0.4000000E-01  0.0000000E+00  0.0000000E+00  0.4901961E-02
    1      -17.177511   1.000000
    2      -17.177226   1.000000
    3      -15.555085   1.000000
    4      -15.554201   1.000000
    5      -10.883934   1.000000
    6      -10.882596   1.000000
    7       -8.232013   1.000000
    8       -8.231485   1.000000
    9       -7.433924   1.000000
   10       -7.433760   1.000000
   11       -6.672063   1.000000
   12       -6.660488   1.000000
   13       -6.048384   1.000000
   14       -6.033040   1.000000
   15       -4.866517   1.000000
   16       -4.800377   1.000000
   17       -4.677533   1.000000
   18       -4.606042   1.000000
   19       -3.351113   1.000000
   20       -3.349829   1.000000
   21       -1.452274   0.000000
   22       -1.452053   0.000000
   23       -0.266321   0.000000
   24       -0.261724   0.000000
   25        0.170432   0.000000
   26        0.222084   0.000000
   27        1.009192   0.000000
   28        1.044905   0.000000
   29        1.218787   0.000000
   30        1.250319   0.000000
   31        1.733301   0.000000
   32        1.734062   0.000000
   33        1.907675   0.000000
   34        1.908633   0.000000
   35        2.582433   0.000000
   36        2.584646   0.000000
   37        2.623178   0.000000
   38        2.623732   0.000000
   39        2.803398   0.000000
   40        2.823323   0.000000
   41        3.429358   0.000000
   42        3.430437   0.000000
   43        3.794002   0.000000
   44        3.795647   0.000000
   45        4.563407   0.000000
   46        4.573348   0.000000
   47        4.890788   0.000000
   48        4.891834   0.000000
   49        5.009665   0.000000
   50        5.009910   0.000000
   51        5.152925   0.000000
   52        5.159826   0.000000
   53        5.792436   0.000000
   54        5.800628   0.000000
   55        6.115262   0.000000
   56        6.118112   0.000000
   57        6.852001   0.000000
   58        6.866001   0.000000
   59        6.896924   0.000000
   60        6.898065   0.000000
   61        7.274625   0.000000
   62        7.278815   0.000000
   63        7.758881   0.000000
   64        7.760006   0.000000
   65        7.902409   0.000000
   66        7.905214   0.000000
   67        8.326483   0.000000
   68        8.335644   0.000000
   69        8.695008   0.000000
   70        8.696559   0.000000
   71        8.836764   0.000000
   72        8.836815   0.000000
   73        9.045532   0.000000
   74        9.048251   0.000000
   75        9.181320   0.000000
   76        9.184102   0.000000
   77        9.314809   0.000000
   78        9.316672   0.000000
   79        9.412085   0.000000
   80        9.412366   0.000000
   81        9.655074   0.000000
   82        9.657410   0.000000
   83        9.735011   0.000000
   84        9.737746   0.000000
   85        9.935995   0.000000
   86        9.937338   0.000000
   87       10.069252   0.000000
   88       10.071004   0.000000
   89       10.412719   0.000000
   90       10.413386   0.000000
   91       10.416801   0.000000
   92       10.418335   0.000000
   93       10.494999   0.000000
   94       10.495149   0.000000
   95       10.799348   0.000000
   96       10.799430   0.000000
   97       11.085167   0.000000
   98       11.088505   0.000000
   99       11.242164   0.000000
  100       11.250699   0.000000
  101       11.662570   0.000000
  102       11.664839   0.000000
  103       11.938930   0.000000
  104       11.940156   0.000000
  105       12.130784   0.000000
  106       12.132218   0.000000
  107       12.281134   0.000000
  108       12.287169   0.000000
  109       12.334715   0.000000
  110       12.340469   0.000000
  111       12.363953   0.000000
  112       12.364534   0.000000
  113       12.523811   0.000000
  114       12.524138   0.000000
  115       12.670739   0.000000
  116       12.674680   0.000000
  117       12.901226   0.000000
  118       12.902534   0.000000
  119       13.162674   0.000000
  120       13.162893   0.000000
  121       13.411917   0.000000
  122       13.413284   0.000000
  123       13.589118   0.000000
  124       13.590563   0.000000
  125       13.661420   0.000000
  126       13.664871   0.000000
  127       13.692876   0.000000
  128       13.695250   0.000000
  129       14.087966   0.000000
  130       14.088672   0.000000
  131       14.196715   0.000000
  132       14.201214   0.000000
  133       14.355646   0.000000
  134       14.356062   0.000000
  135       14.438629   0.000000
  136       14.439414   0.000000
  137       14.493140   0.000000
  138       14.493263   0.000000
  139       14.700416   0.000000
  140       14.702064   0.000000
  141       14.952335   0.000000
  142       14.953908   0.000000
  143       15.058213   0.000000
  144       15.074474   0.000000
 
  0.5000000E-01  0.0000000E+00  0.0000000E+00  0.4901961E-02
    1      -17.170538   1.000000
    2      -17.170183   1.000000
    3      -15.551256   1.000000
    4      -15.550153   1.000000
    5      -10.888825   1.000000
    6      -10.887155   1.000000
    7       -8.247062   1.000000
    8       -8.246392   1.000000
    9       -7.427625   1.000000
   10       -7.427398   1.000000
   11       -6.669818   1.000000
   12       -6.654947   1.000000
   13       -6.070189   1.000000
   14       -6.050693   1.000000
   15       -4.895390   1.000000
   16       -4.831213   1.000000
   17       -4.658625   1.000000
   18       -4.587875   1.000000
   19       -3.354907   1.000000
   20       -3.353323   1.000000
   21       -1.444612   0.000000
   22       -1.444324   0.000000
   23       -0.223648   0.000000
   24       -0.217455   0.000000
   25        0.163218   0.000000
   26        0.229336   0.000000
   27        0.966890   0.000000
   28        1.018543   0.000000
   29        1.233164   0.000000
   30        1.266501   0.000000
   31        1.742816   0.000000
   32        1.743722   0.000000
   33        1.917972   0.000000
   34        1.919165   0.000000
   35        2.591103   0.000000
   36        2.594468   0.000000
   37        2.629921   0.000000
   38        2.630537   0.000000
   39        2.766584   0.000000
   40        2.789684   0.000000
   41        3.438336   0.000000
   42        3.439669   0.000000
   43        3.803708   0.000000
   44        3.805680   0.000000
   45        4.526220   0.000000
   46        4.537964   0.000000
   47        4.835946   0.000000
   48        4.836284   0.000000
   49        5.015004   0.000000
   50        5.015236   0.000000
   51        5.137116   0.000000
   52        5.142868   0.000000
   53        5.794675   0.000000
   54        5.804897   0.000000
   55        6.098208   0.000000
   56        6.100811   0.000000
   57        6.907104   0.000000
   58        6.909422   0.000000
   59        6.942311   0.000000
   60        6.953614   0.000000
   61        7.297783   0.000000
   62        7.304272   0.000000
   63        7.799583   0.000000
   64        7.800655   0.000000
   65        7.930956   0.000000
   66        7.934383   0.000000
   67        8.320517   0.000000
   68        8.331335   0.000000
   69        8.689477   0.000000
   70        8.691537   0.000000
   71        8.856994   0.000000
   72        8.857642   0.000000
   73        9.064890   0.000000
   74        9.067864   0.000000
   75        9.206484   0.000000
   76        9.209360   0.000000
   77        9.339192   0.000000
   78        9.342267   0.000000
   79        9.423515   0.000000
   80        9.423874   0.000000
   81        9.649164   0.000000
   82        9.652061   0.000000
   83        9.806130   0.000000
   84        9.810120   0.000000
   85        9.950539   0.000000
   86        9.952453   0.000000
   87       10.062460   0.000000
   88       10.065096   0.000000
   89       10.347505   0.000000
   90       10.348148   0.000000
   91       10.424766   0.000000
   92       10.425379   0.000000
   93       10.503045   0.000000
   94       10.504035   0.000000
   95       10.813861   0.000000
   96       10.813950   0.000000
   97       10.997920   0.000000
   98       11.002727   0.000000
   99       11.235952   0.000000
  100       11.246465   0.000000
  101       11.599850   0.000000
  102       11.602384   0.000000
  103       11.903373   0.000000
  104       11.904139   0.000000
  105       11.983432   0.000000
  106       11.984521   0.000000
  107       12.196374   0.000000
  108       12.200508   0.000000
  109       12.304318   0.000000
  110       12.305435   0.000000
  111       12.356059   0.000000
  112       12.359735   0.000000
  113       12.413740   0.000000
  114       12.415403   0.000000
  115       12.647535   0.000000
  116       12.649455   0.000000
  117       12.943125   0.000000
  118       12.946475   0.000000
  119       13.168914   0.000000
  120       13.169234   0.000000
  121       13.356851   0.000000
  122       13.357547   0.000000
  123       13.432765   0.000000
  124       13.434005   0.000000
  125       13.593552   0.000000
  126       13.594975   0.000000
  127       13.818145   0.000000
  128       13.821463   0.000000
  129       14.186647   0.000000
  130       14.187023   0.000000
  131       14.354492   0.000000
  132       14.361665   0.000000
  133       14.427762   0.000000
  134       14.429001   0.000000
  135       14.514419   0.000000
  136       14.514604   0.000000
  137       14.539011   0.000000
  138       14.542064   0.000000
  139       14.709186   0.000000
  140       14.710819   0.000000
  141       14.924812   0.000000
  142       14.953500   0.000000
  143       15.202897   0.000000
  144       15.237599   0.000000
 
  0.6000000E-01  0.0000000E+00  0.0000000E+00  0.4901961E-02
    1      -17.162019   1.000000
    2      -17.161596   1.000000
    3      -15.546594   1.000000
    4      -15.545275   1.000000
    5      -10.894793   1.000000
    6      -10.892794   1.000000
    7       -8.265536   1.000000
    8       -8.264719   1.000000
    9       -7.419928   1.000000
   10       -7.419625   1.000000
   11       -6.667154   1.000000
   12       -6.648709   1.000000
   13       -6.095304   1.000000
   14       -6.071430   1.000000
   15       -4.925248   1.000000
   16       -4.863265   1.000000
   17       -4.640249   1.000000
   18       -4.570541   1.000000
   19       -3.359577   1.000000
   20       -3.357705   1.000000
   21       -1.435253   0.000000
   22       -1.434891   0.000000
   23       -0.172913   0.000000
   24       -0.164818   0.000000
   25        0.151509   0.000000
   26        0.232251   0.000000
   27        0.924255   0.000000
   28        0.992361   0.000000
   29        1.248903   0.000000
   30        1.283355   0.000000
   31        1.754486   0.000000
   32        1.755513   0.000000
   33        1.930440   0.000000
   34        1.931863   0.000000
   35        2.600088   0.000000
   36        2.606388   0.000000
   37        2.633296   0.000000
   38        2.637271   0.000000
   39        2.728676   0.000000
   40        2.751093   0.000000
   41        3.448775   0.000000
   42        3.450348   0.000000
   43        3.815483   0.000000
   44        3.817755   0.000000
   45        4.483670   0.000000
   46        4.496788   0.000000
   47        4.762076   0.000000
   48        4.763699   0.000000
   49        5.022368   0.000000
   50        5.022587   0.000000
   51        5.132501   0.000000
   52        5.136779   0.000000
   53        5.806051   0.000000
   54        5.817967   0.000000
   55        6.070997   0.000000
   56        6.073144   0.000000
   57        6.923438   0.000000
   58        6.924327   0.000000
   59        7.028961   0.000000
   60        7.040687   0.000000
   61        7.331572   0.000000
   62        7.341665   0.000000
   63        7.846887   0.000000
   64        7.847786   0.000000
   65        7.966917   0.000000
   66        7.970861   0.000000
   67        8.321502   0.000000
   68        8.333579   0.000000
   69        8.682141   0.000000
   70        8.684760   0.000000
   71        8.883220   0.000000
   72        8.884748   0.000000
   73        9.086478   0.000000
   74        9.089623   0.000000
   75        9.231535   0.000000
   76        9.234217   0.000000
   77        9.366990   0.000000
   78        9.371419   0.000000
   79        9.437511   0.000000
   80        9.437942   0.000000
   81        9.641243   0.000000
   82        9.644630   0.000000
   83        9.888440   0.000000
   84        9.893354   0.000000
   85        9.969127   0.000000
   86        9.972173   0.000000
   87       10.043989   0.000000
   88       10.047813   0.000000
   89       10.287499   0.000000
   90       10.288153   0.000000
   91       10.438330   0.000000
   92       10.438927   0.000000
   93       10.511752   0.000000
   94       10.513481   0.000000
   95       10.831520   0.000000
   96       10.831641   0.000000
   97       10.884506   0.000000
   98       10.888038   0.000000
   99       11.259073   0.000000
  100       11.269151   0.000000
  101       11.502985   0.000000
  102       11.505191   0.000000
  103       11.833529   0.000000
  104       11.833793   0.000000
  105       11.849117   0.000000
  106       11.849362   0.000000
  107       12.107368   0.000000
  108       12.108925   0.000000
  109       12.172712   0.000000
  110       12.174241   0.000000
  111       12.325193   0.000000
  112       12.326232   0.000000
  113       12.406373   0.000000
  114       12.408063   0.000000
  115       12.653441   0.000000
  116       12.654438   0.000000
  117       13.036251   0.000000
  118       13.040269   0.000000
  119       13.169823   0.000000
  120       13.170390   0.000000
  121       13.270671   0.000000
  122       13.272250   0.000000
  123       13.273619   0.000000
  124       13.274670   0.000000
  125       13.563021   0.000000
  126       13.563507   0.000000
  127       13.888943   0.000000
  128       13.891743   0.000000
  129       14.303396   0.000000
  130       14.303869   0.000000
  131       14.405540   0.000000
  132       14.405964   0.000000
  133       14.445708   0.000000
  134       14.451441   0.000000
  135       14.657674   0.000000
  136       14.662166   0.000000
  137       14.699574   0.000000
  138       14.702051   0.000000
  139       14.722058   0.000000
  140       14.722694   0.000000
  141       14.853619   0.000000
  142       14.855914   0.000000
  143       15.140128   0.000000
  144       15.153024   0.000000
 
  0.7000000E-01  0.0000000E+00  0.0000000E+00  0.4901961E-02
    1      -17.151961   1.000000
    2      -17.151469   1.000000
    3      -15.541123   1.000000
    4      -15.539589   1.000000
    5      -10.901852   1.000000
    6      -10.899526   1.000000
    7       -8.287480   1.000000
    8       -8.286512   1.000000
    9       -7.410838   1.000000
   10       -7.410445   1.000000
   11       -6.664312   1.000000
   12       -6.641956   1.000000
   13       -6.123059   1.000000
   14       -6.094528   1.000000
   15       -4.955878   1.000000
   16       -4.896242   1.000000
   17       -4.622301   1.000000
   18       -4.553864   1.000000
   19       -3.365157   1.000000
   20       -3.363009   1.000000
   21       -1.424202   0.000000
   22       -1.423754   0.000000
   23       -0.115015   0.000000
   24       -0.104649   0.000000
   25        0.133359   0.000000
   26        0.227882   0.000000
   27        0.884269   0.000000
   28        0.968046   0.000000
   29        1.266089   0.000000
   30        1.301248   0.000000
   31        1.768307   0.000000
   32        1.769437   0.000000
   33        1.945037   0.000000
   34        1.946683   0.000000
   35        2.599638   0.000000
   36        2.620172   0.000000
   37        2.632374   0.000000
   38        2.639135   0.000000
   39        2.701400   0.000000
   40        2.712640   0.000000
   41        3.460438   0.000000
   42        3.462234   0.000000
   43        3.829231   0.000000
   44        3.831794   0.000000
   45        4.437855   0.000000
   46        4.451925   0.000000
   47        4.675414   0.000000
   48        4.677780   0.000000
   49        5.031884   0.000000
   50        5.032097   0.000000
   51        5.136527   0.000000
   52        5.139521   0.000000
   53        5.827017   0.000000
   54        5.840192   0.000000
   55        6.033121   0.000000
   56        6.034718   0.000000
   57        6.940884   0.000000
   58        6.941463   0.000000
   59        7.109146   0.000000
   60        7.118253   0.000000
   61        7.381142   0.000000
   62        7.396276   0.000000
   63        7.899026   0.000000
   64        7.899676   0.000000
   65        8.010985   0.000000
   66        8.015260   0.000000
   67        8.330600   0.000000
   68        8.343528   0.000000
   69        8.672689   0.000000
   70        8.675916   0.000000
   71        8.915239   0.000000
   72        8.917783   0.000000
   73        9.110554   0.000000
   74        9.113775   0.000000
   75        9.257127   0.000000
   76        9.259450   0.000000
   77        9.397467   0.000000
   78        9.403291   0.000000
   79        9.454073   0.000000
   80        9.454565   0.000000
   81        9.630934   0.000000
   82        9.634659   0.000000
   83        9.971051   0.000000
   84        9.971951   0.000000
   85        9.997254   0.000000
   86       10.003153   0.000000
   87       10.008365   0.000000
   88       10.010059   0.000000
   89       10.246308   0.000000
   90       10.247348   0.000000
   91       10.453867   0.000000
   92       10.454157   0.000000
   93       10.518336   0.000000
   94       10.521025   0.000000
   95       10.779717   0.000000
   96       10.781322   0.000000
   97       10.852232   0.000000
   98       10.852307   0.000000
   99       11.271968   0.000000
  100       11.281624   0.000000
  101       11.378109   0.000000
  102       11.379560   0.000000
  103       11.712435   0.000000
  104       11.713179   0.000000
  105       11.734646   0.000000
  106       11.734707   0.000000
  107       12.016005   0.000000
  108       12.016366   0.000000
  109       12.066138   0.000000
  110       12.067771   0.000000
  111       12.279787   0.000000
  112       12.283003   0.000000
  113       12.415460   0.000000
  114       12.417183   0.000000
  115       12.668893   0.000000
  116       12.670349   0.000000
  117       13.077953   0.000000
  118       13.078682   0.000000
  119       13.137398   0.000000
  120       13.140434   0.000000
  121       13.193240   0.000000
  122       13.193387   0.000000
  123       13.204575   0.000000
  124       13.204642   0.000000
  125       13.562316   0.000000
  126       13.564140   0.000000
  127       13.911577   0.000000
  128       13.913278   0.000000
  129       14.372326   0.000000
  130       14.372463   0.000000
  131       14.429527   0.000000
  132       14.430601   0.000000
  133       14.479150   0.000000
  134       14.482534   0.000000
  135       14.728318   0.000000
  136       14.731314   0.000000
  137       14.755639   0.000000
  138       14.758220   0.000000
  139       14.858728   0.000000
  140       14.859378   0.000000
  141       14.878954   0.000000
  142       14.883643   0.000000
  143       15.098595   0.000000
  144       15.102776   0.000000
 
  0.8000000E-01  0.0000000E+00  0.0000000E+00  0.4901961E-02
    1      -17.140370   1.000000
    2      -17.139811   1.000000
    3      -15.534872   1.000000
    4      -15.533127   1.000000
    5      -10.910016   1.000000
    6      -10.907367   1.000000
    7       -8.312938   1.000000
    8       -8.311814   1.000000
    9       -7.400358   1.000000
   10       -7.399860   1.000000
   11       -6.661620   1.000000
   12       -6.634968   1.000000
   13       -6.152665   1.000000
   14       -6.119156   1.000000
   15       -4.987025   1.000000
   16       -4.929831   1.000000
   17       -4.604674   1.000000
   18       -4.537687   1.000000
   19       -3.371685   1.000000
   20       -3.369275   1.000000
   21       -1.411464   0.000000
   22       -1.410917   0.000000
   23       -0.051020   0.000000
   24       -0.037996   0.000000
   25        0.107142   0.000000
   26        0.213147   0.000000
   27        0.849874   0.000000
   28        0.946982   0.000000
   29        1.284806   0.000000
   30        1.320414   0.000000
   31        1.784273   0.000000
   32        1.785491   0.000000
   33        1.961729   0.000000
   34        1.963591   0.000000
   35        2.566186   0.000000
   36        2.618637   0.000000
   37        2.638093   0.000000
   38        2.641248   0.000000
   39        2.690279   0.000000
   40        2.694888   0.000000
   41        3.473122   0.000000
   42        3.475124   0.000000
   43        3.844814   0.000000
   44        3.847686   0.000000
   45        4.391184   0.000000
   46        4.405842   0.000000
   47        4.580711   0.000000
   48        4.583253   0.000000
   49        5.043574   0.000000
   50        5.043793   0.000000
   51        5.146661   0.000000
   52        5.148662   0.000000
   53        5.857080   0.000000
   54        5.870959   0.000000
   55        5.985142   0.000000
   56        5.986087   0.000000
   57        6.960271   0.000000
   58        6.960691   0.000000
   59        7.174621   0.000000
   60        7.180254   0.000000
   61        7.450444   0.000000
   62        7.470758   0.000000
   63        7.953995   0.000000
   64        7.954370   0.000000
   65        8.064036   0.000000
   66        8.068333   0.000000
   67        8.348054   0.000000
   68        8.361448   0.000000
   69        8.660850   0.000000
   70        8.664730   0.000000
   71        8.952476   0.000000
   72        8.956106   0.000000
   73        9.137215   0.000000
   74        9.140388   0.000000
   75        9.284217   0.000000
   76        9.286059   0.000000
   77        9.430436   0.000000
   78        9.437655   0.000000
   79        9.473190   0.000000
   80        9.473713   0.000000
   81        9.617762   0.000000
   82        9.621546   0.000000
   83        9.939237   0.000000
   84        9.945222   0.000000
   85       10.010855   0.000000
   86       10.012302   0.000000
   87       10.074443   0.000000
   88       10.085578   0.000000
   89       10.227826   0.000000
   90       10.229032   0.000000
   91       10.469447   0.000000
   92       10.470095   0.000000
   93       10.515776   0.000000
   94       10.519616   0.000000
   95       10.698138   0.000000
   96       10.698908   0.000000
   97       10.874955   0.000000
   98       10.875062   0.000000
   99       11.241179   0.000000
  100       11.242538   0.000000
  101       11.255816   0.000000
  102       11.263839   0.000000
  103       11.564920   0.000000
  104       11.566008   0.000000
  105       11.630659   0.000000
  106       11.631356   0.000000
  107       11.915511   0.000000
  108       11.915726   0.000000
  109       11.994801   0.000000
  110       11.996091   0.000000
  111       12.251688   0.000000
  112       12.255136   0.000000
  113       12.428049   0.000000
  114       12.429870   0.000000
  115       12.660171   0.000000
  116       12.660764   0.000000
  117       12.918274   0.000000
  118       12.918622   0.000000
  119       13.109745   0.000000
  120       13.109913   0.000000
  121       13.210904   0.000000
  122       13.211149   0.000000
  123       13.264134   0.000000
  124       13.265740   0.000000
  125       13.586029   0.000000
  126       13.588802   0.000000
  127       13.904583   0.000000
  128       13.905193   0.000000
  129       14.315475   0.000000
  130       14.316008   0.000000
  131       14.498274   0.000000
  132       14.499609   0.000000
  133       14.501909   0.000000
  134       14.503817   0.000000
  135       14.737358   0.000000
  136       14.741988   0.000000
  137       14.746524   0.000000
  138       14.749801   0.000000
  139       14.920727   0.000000
  140       14.921141   0.000000
  141       15.054054   0.000000
  142       15.059490   0.000000
  143       15.208892   0.000000
  144       15.220926   0.000000
 
  0.9000000E-01  0.0000000E+00  0.0000000E+00  0.4901961E-02
    1      -17.127257   1.000000
    2      -17.126633   1.000000
    3      -15.527876   1.000000
    4      -15.525923   1.000000
    5      -10.919297   1.000000
    6      -10.916330   1.000000
    7       -8.341947   1.000000
    8       -8.340664   1.000000
    9       -7.388499   1.000000
   10       -7.387881   1.000000
   11       -6.659479   1.000000
   12       -6.628135   1.000000
   13       -6.183191   1.000000
   14       -6.144369   1.000000
   15       -5.018406   1.000000
   16       -4.963701   1.000000
   17       -4.587275   1.000000
   18       -4.521870   1.000000
   19       -3.379205   1.000000
   20       -3.376546   1.000000
   21       -1.397048   0.000000
   22       -1.396384   0.000000
   23        0.017820   0.000000
   24        0.033135   0.000000
   25        0.072603   0.000000
   26        0.185595   0.000000
   27        0.823216   0.000000
   28        0.929900   0.000000
   29        1.305096   0.000000
   30        1.340948   0.000000
   31        1.802372   0.000000
   32        1.803670   0.000000
   33        1.980489   0.000000
   34        1.982555   0.000000
   35        2.511966   0.000000
   36        2.574976   0.000000
   37        2.655863   0.000000
   38        2.657641   0.000000
   39        2.690010   0.000000
   40        2.699965   0.000000
   41        3.486675   0.000000
   42        3.488871   0.000000
   43        3.862004   0.000000
   44        3.865245   0.000000
   45        4.346128   0.000000
   46        4.361097   0.000000
   47        4.481566   0.000000
   48        4.483843   0.000000
   49        5.057396   0.000000
   50        5.057628   0.000000
   51        5.161247   0.000000
   52        5.162497   0.000000
   53        5.894965   0.000000
   54        5.906674   0.000000
   55        5.928655   0.000000
   56        5.930753   0.000000
   57        6.981577   0.000000
   58        6.981891   0.000000
   59        7.224901   0.000000
   60        7.227968   0.000000
   61        7.536739   0.000000
   62        7.560551   0.000000
   63        8.009718   0.000000
   64        8.009841   0.000000
   65        8.127101   0.000000
   66        8.130945   0.000000
   67        8.373511   0.000000
   68        8.387034   0.000000
   69        8.646449   0.000000
   70        8.651024   0.000000
   71        8.994093   0.000000
   72        8.998788   0.000000
   73        9.166399   0.000000
   74        9.169371   0.000000
   75        9.313636   0.000000
   76        9.314851   0.000000
   77        9.466045   0.000000
   78        9.474619   0.000000
   79        9.494791   0.000000
   80        9.495260   0.000000
   81        9.600766   0.000000
   82        9.604124   0.000000
   83        9.858148   0.000000
   84        9.863146   0.000000
   85       10.041207   0.000000
   86       10.043487   0.000000
   87       10.156530   0.000000
   88       10.167374   0.000000
   89       10.225723   0.000000
   90       10.226843   0.000000
   91       10.480690   0.000000
   92       10.483481   0.000000
   93       10.492056   0.000000
   94       10.495722   0.000000
   95       10.655405   0.000000
   96       10.657613   0.000000
   97       10.897054   0.000000
   98       10.897177   0.000000
   99       11.110892   0.000000
  100       11.111117   0.000000
  101       11.190191   0.000000
  102       11.196623   0.000000
  103       11.417218   0.000000
  104       11.418259   0.000000
  105       11.541257   0.000000
  106       11.543888   0.000000
  107       11.817620   0.000000
  108       11.817654   0.000000
  109       11.943817   0.000000
  110       11.944437   0.000000
  111       12.240630   0.000000
  112       12.243764   0.000000
  113       12.440752   0.000000
  114       12.442633   0.000000
  115       12.600615   0.000000
  116       12.600924   0.000000
  117       12.765025   0.000000
  118       12.765108   0.000000
  119       13.097957   0.000000
  120       13.098546   0.000000
  121       13.223225   0.000000
  122       13.223575   0.000000
  123       13.350576   0.000000
  124       13.351035   0.000000
  125       13.631970   0.000000
  126       13.635093   0.000000
  127       13.874985   0.000000
  128       13.875303   0.000000
  129       14.235851   0.000000
  130       14.236279   0.000000
  131       14.480971   0.000000
  132       14.483558   0.000000
  133       14.515245   0.000000
  134       14.515298   0.000000
  135       14.749225   0.000000
  136       14.755969   0.000000
  137       14.759234   0.000000
  138       14.763679   0.000000
  139       14.985611   0.000000
  140       14.988967   0.000000
  141       15.238194   0.000000
  142       15.257833   0.000000
  143       15.351876   0.000000
  144       15.367817   0.000000
 
  0.1000000E+00  0.0000000E+00  0.0000000E+00  0.4901961E-02
    1      -17.112631   1.000000
    2      -17.111943   1.000000
    3      -15.520178   1.000000
    4      -15.518019   1.000000
    5      -10.929707   1.000000
    6      -10.926426   1.000000
    7       -8.374537   1.000000
    8       -8.373094   1.000000
    9       -7.375272   1.000000
   10       -7.374517   1.000000
   11       -6.658392   1.000000
   12       -6.622013   1.000000
   13       -6.213537   1.000000
   14       -6.169124   1.000000
   15       -5.049713   1.000000
   16       -4.997506   1.000000
   17       -4.570026   1.000000
   18       -4.506299   1.000000
   19       -3.387758   1.000000
   20       -3.384863   1.000000
   21       -1.380964   0.000000
   22       -1.380160   0.000000
   23        0.025197   0.000000
   24        0.089984   0.000000
   25        0.111601   0.000000
   26        0.144315   0.000000
   27        0.804853   0.000000
   28        0.916699   0.000000
   29        1.326935   0.000000
   30        1.362818   0.000000
   31        1.822588   0.000000
   32        1.823967   0.000000
   33        2.001293   0.000000
   34        2.003547   0.000000
   35        2.449832   0.000000
   36        2.520949   0.000000
   37        2.676334   0.000000
   38        2.677358   0.000000
   39        2.697213   0.000000
   40        2.708923   0.000000
   41        3.501016   0.000000
   42        3.503399   0.000000
   43        3.880373   0.000000
   44        3.884123   0.000000
   45        4.305093   0.000000
   46        4.320192   0.000000
   47        4.380829   0.000000
   48        4.382572   0.000000
   49        5.073280   0.000000
   50        5.073531   0.000000
   51        5.179293   0.000000
   52        5.179977   0.000000
   53        5.861052   0.000000
   54        5.862655   0.000000
   55        5.940732   0.000000
   56        5.956557   0.000000
   57        7.004731   0.000000
   58        7.004969   0.000000
   59        7.265025   0.000000
   60        7.266736   0.000000
   61        7.631880   0.000000
   62        7.657046   0.000000
   63        8.064219   0.000000
   64        8.064284   0.000000
   65        8.201196   0.000000
   66        8.203938   0.000000
   67        8.406212   0.000000
   68        8.419568   0.000000
   69        8.629545   0.000000
   70        8.634856   0.000000
   71        9.038885   0.000000
   72        9.044494   0.000000
   73        9.197913   0.000000
   74        9.200518   0.000000
   75        9.345904   0.000000
   76        9.346301   0.000000
   77        9.504465   0.000000
   78        9.514197   0.000000
   79        9.518437   0.000000
   80        9.518485   0.000000
   81        9.577195   0.000000
   82        9.579487   0.000000
   83        9.770734   0.000000
   84        9.773549   0.000000
   85       10.074905   0.000000
   86       10.077941   0.000000
   87       10.220899   0.000000
   88       10.228915   0.000000
   89       10.232923   0.000000
   90       10.234412   0.000000
   91       10.450415   0.000000
   92       10.451597   0.000000
   93       10.480789   0.000000
   94       10.487765   0.000000
   95       10.651790   0.000000
   96       10.653497   0.000000
   97       10.905890   0.000000
   98       10.906308   0.000000
   99       11.003459   0.000000
  100       11.003613   0.000000
  101       11.078922   0.000000
  102       11.083155   0.000000
  103       11.293298   0.000000
  104       11.293974   0.000000
  105       11.452801   0.000000
  106       11.457219   0.000000
  107       11.748122   0.000000
  108       11.748230   0.000000
  109       11.897208   0.000000
  110       11.897305   0.000000
  111       12.236519   0.000000
  112       12.239425   0.000000
  113       12.446545   0.000000
  114       12.448122   0.000000
  115       12.499159   0.000000
  116       12.499961   0.000000
  117       12.633599   0.000000
  118       12.633744   0.000000
  119       13.131792   0.000000
  120       13.133407   0.000000
  121       13.237432   0.000000
  122       13.237834   0.000000
  123       13.412137   0.000000
  124       13.412326   0.000000
  125       13.685784   0.000000
  126       13.688153   0.000000
  127       13.823361   0.000000
  128       13.824398   0.000000
  129       14.152850   0.000000
  130       14.152979   0.000000
  131       14.413681   0.000000
  132       14.416681   0.000000
  133       14.535019   0.000000
  134       14.535590   0.000000
  135       14.761940   0.000000
  136       14.768344   0.000000
  137       14.798340   0.000000
  138       14.805058   0.000000
  139       15.021243   0.000000
  140       15.026979   0.000000
  141       15.406069   0.000000
  142       15.421184   0.000000
  143       15.458166   0.000000
  144       15.479406   0.000000
 
  0.1100000E+00  0.0000000E+00  0.0000000E+00  0.4901961E-02
    1      -17.096506   1.000000
    2      -17.095756   1.000000
    3      -15.511822   1.000000
    4      -15.509463   1.000000
    5      -10.941252   1.000000
    6      -10.937661   1.000000
    7       -8.410725   1.000000
    8       -8.409120   1.000000
    9       -7.360689   1.000000
   10       -7.359782   1.000000
   11       -6.658939   1.000000
   12       -6.617362   1.000000
   13       -6.242404   1.000000
   14       -6.192300   1.000000
   15       -5.080639   1.000000
   16       -5.030908   1.000000
   17       -4.552871   1.000000
   18       -4.490889   1.000000
   19       -3.397387   1.000000
   20       -3.394267   1.000000
   21       -1.363222   0.000000
   22       -1.362250   0.000000
   23       -0.028799   0.000000
   24        0.089695   0.000000
   25        0.164188   0.000000
   26        0.189994   0.000000
   27        0.793495   0.000000
   28        0.906458   0.000000
   29        1.350228   0.000000
   30        1.385887   0.000000
   31        1.844892   0.000000
   32        1.846368   0.000000
   33        2.024115   0.000000
   34        2.026526   0.000000
   35        2.384213   0.000000
   36        2.463822   0.000000
   37        2.698856   0.000000
   38        2.699502   0.000000
   39        2.706446   0.000000
   40        2.719318   0.000000
   41        3.516140   0.000000
   42        3.518714   0.000000
   43        3.898980   0.000000
   44        3.903535   0.000000
   45        4.270162   0.000000
   46        4.281056   0.000000
   47        4.282561   0.000000
   48        4.285632   0.000000
   49        5.091150   0.000000
   50        5.091424   0.000000
   51        5.200169   0.000000
   52        5.200424   0.000000
   53        5.790287   0.000000
   54        5.791497   0.000000
   55        5.991330   0.000000
   56        6.006773   0.000000
   57        7.029671   0.000000
   58        7.029854   0.000000
   59        7.299851   0.000000
   60        7.300962   0.000000
   61        7.727951   0.000000
   62        7.752664   0.000000
   63        8.115947   0.000000
   64        8.116107   0.000000
   65        8.286864   0.000000
   66        8.287773   0.000000
   67        8.445182   0.000000
   68        8.458078   0.000000
   69        8.610568   0.000000
   70        8.616677   0.000000
   71        9.085300   0.000000
   72        9.091545   0.000000
   73        9.231474   0.000000
   74        9.233575   0.000000
   75        9.380423   0.000000
   76        9.381052   0.000000
   77        9.523845   0.000000
   78        9.528411   0.000000
   79        9.545709   0.000000
   80        9.552422   0.000000
   81        9.552637   0.000000
   82        9.560193   0.000000
   83        9.692531   0.000000
   84        9.693477   0.000000
   85       10.112553   0.000000
   86       10.116322   0.000000
   87       10.242399   0.000000
   88       10.243623   0.000000
   89       10.251723   0.000000
   90       10.254903   0.000000
   91       10.407650   0.000000
   92       10.409214   0.000000
   93       10.466345   0.000000
   94       10.478571   0.000000
   95       10.667149   0.000000
   96       10.667949   0.000000
   97       10.845132   0.000000
   98       10.847788   0.000000
   99       10.942547   0.000000
  100       10.945143   0.000000
  101       10.966474   0.000000
  102       10.966804   0.000000
  103       11.228863   0.000000
  104       11.229162   0.000000
  105       11.341555   0.000000
  106       11.346348   0.000000
  107       11.720459   0.000000
  108       11.720764   0.000000
  109       11.842916   0.000000
  110       11.843619   0.000000
  111       12.218447   0.000000
  112       12.221485   0.000000
  113       12.393673   0.000000
  114       12.394171   0.000000
  115       12.418740   0.000000
  116       12.419144   0.000000
  117       12.557146   0.000000
  118       12.558645   0.000000
  119       13.190877   0.000000
  120       13.193854   0.000000
  121       13.252647   0.000000
  122       13.252981   0.000000
  123       13.455972   0.000000
  124       13.456364   0.000000
  125       13.705709   0.000000
  126       13.706357   0.000000
  127       13.750570   0.000000
  128       13.752049   0.000000
  129       14.103153   0.000000
  130       14.104288   0.000000
  131       14.341343   0.000000
  132       14.344546   0.000000
  133       14.560591   0.000000
  134       14.561496   0.000000
  135       14.769057   0.000000
  136       14.775834   0.000000
  137       14.861047   0.000000
  138       14.869631   0.000000
  139       14.986249   0.000000
  140       14.991946   0.000000
  141       15.526204   0.000000
  142       15.538461   0.000000
  143       15.588157   0.000000
  144       15.620223   0.000000
 
  0.1200000E+00  0.0000000E+00  0.0000000E+00  0.4901961E-02
    1      -17.078896   1.000000
    2      -17.078086   1.000000
    3      -15.502860   1.000000
    4      -15.500305   1.000000
    5      -10.953930   1.000000
    6      -10.950038   1.000000
    7       -8.450507   1.000000
    8       -8.448743   1.000000
    9       -7.344768   1.000000
   10       -7.343695   1.000000
   11       -6.661744   1.000000
   12       -6.615174   1.000000
   13       -6.268273   1.000000
   14       -6.212745   1.000000
   15       -5.110876   1.000000
   16       -5.063575   1.000000
   17       -4.535773   1.000000
   18       -4.475573   1.000000
   19       -3.408134   1.000000
   20       -3.404799   1.000000
   21       -1.343837   0.000000
   22       -1.342663   0.000000
   23       -0.091215   0.000000
   24        0.024383   0.000000
   25        0.237871   0.000000
   26        0.269314   0.000000
   27        0.786593   0.000000
   28        0.897673   0.000000
   29        1.374815   0.000000
   30        1.409944   0.000000
   31        1.869231   0.000000
   32        1.870851   0.000000
   33        2.048923   0.000000
   34        2.051427   0.000000
   35        2.317499   0.000000
   36        2.406346   0.000000
   37        2.715350   0.000000
   38        2.723051   0.000000
   39        2.724322   0.000000
   40        2.731049   0.000000
   41        3.532119   0.000000
   42        3.534903   0.000000
   43        3.915325   0.000000
   44        3.921357   0.000000
   45        4.186658   0.000000
   46        4.187619   0.000000
   47        4.243797   0.000000
   48        4.258901   0.000000
   49        5.110937   0.000000
   50        5.111235   0.000000
   51        5.223316   0.000000
   52        5.223407   0.000000
   53        5.714831   0.000000
   54        5.715986   0.000000
   55        6.046390   0.000000
   56        6.061451   0.000000
   57        7.056349   0.000000
   58        7.056494   0.000000
   59        7.332268   0.000000
   60        7.333165   0.000000
   61        7.819181   0.000000
   62        7.842048   0.000000
   63        8.163846   0.000000
   64        8.163987   0.000000
   65        8.382035   0.000000
   66        8.383510   0.000000
   67        8.489445   0.000000
   68        8.501403   0.000000
   69        8.590571   0.000000
   70        8.597687   0.000000
   71        9.131435   0.000000
   72        9.137977   0.000000
   73        9.266775   0.000000
   74        9.268298   0.000000
   75        9.416486   0.000000
   76        9.418203   0.000000
   77        9.452902   0.000000
   78        9.459310   0.000000
   79        9.576967   0.000000
   80        9.578374   0.000000
   81        9.589158   0.000000
   82        9.601447   0.000000
   83        9.640419   0.000000
   84        9.644372   0.000000
   85       10.151978   0.000000
   86       10.156334   0.000000
   87       10.225714   0.000000
   88       10.226498   0.000000
   89       10.252088   0.000000
   90       10.253402   0.000000
   91       10.373692   0.000000
   92       10.378019   0.000000
   93       10.450344   0.000000
   94       10.463811   0.000000
   95       10.689980   0.000000
   96       10.690341   0.000000
   97       10.732454   0.000000
   98       10.737947   0.000000
   99       10.798690   0.000000
  100       10.800825   0.000000
  101       10.980864   0.000000
  102       10.982410   0.000000
  103       11.211138   0.000000
  104       11.216167   0.000000
  105       11.236741   0.000000
  106       11.239254   0.000000
  107       11.721123   0.000000
  108       11.721824   0.000000
  109       11.775147   0.000000
  110       11.776246   0.000000
  111       12.137375   0.000000
  112       12.140574   0.000000
  113       12.343223   0.000000
  114       12.344312   0.000000
  115       12.348897   0.000000
  116       12.349806   0.000000
  117       12.549524   0.000000
  118       12.552172   0.000000
  119       13.258014   0.000000
  120       13.264471   0.000000
  121       13.269035   0.000000
  122       13.270756   0.000000
  123       13.491807   0.000000
  124       13.492356   0.000000
  125       13.652153   0.000000
  126       13.652972   0.000000
  127       13.660246   0.000000
  128       13.661940   0.000000
  129       14.118839   0.000000
  130       14.120580   0.000000
  131       14.275940   0.000000
  132       14.279171   0.000000
  133       14.592069   0.000000
  134       14.593185   0.000000
  135       14.768780   0.000000
  136       14.775832   0.000000
  137       14.915240   0.000000
  138       14.920247   0.000000
  139       14.946986   0.000000
  140       14.951990   0.000000
  141       15.467576   0.000000
  142       15.501525   0.000000
  143       15.514225   0.000000
  144       15.749149   0.000000
 
  0.1300000E+00  0.0000000E+00  0.0000000E+00  0.4901961E-02
    1      -17.059818   1.000000
    2      -17.058950   1.000000
    3      -15.493350   1.000000
    4      -15.490604   1.000000
    5      -10.967736   1.000000
    6      -10.963551   1.000000
    7       -8.493864   1.000000
    8       -8.491943   1.000000
    9       -7.327532   1.000000
   10       -7.326279   1.000000
   11       -6.667384   1.000000
   12       -6.616596   1.000000
   13       -6.289491   1.000000
   14       -6.229376   1.000000
   15       -5.140133   1.000000
   16       -5.095200   1.000000
   17       -4.518715   1.000000
   18       -4.460319   1.000000
   19       -3.420038   1.000000
   20       -3.416497   1.000000
   21       -1.322830   0.000000
   22       -1.321407   0.000000
   23       -0.160477   0.000000
   24       -0.049518   0.000000
   25        0.309163   0.000000
   26        0.347150   0.000000
   27        0.781199   0.000000
   28        0.888559   0.000000
   29        1.400482   0.000000
   30        1.434741   0.000000
   31        1.895507   0.000000
   32        1.897381   0.000000
   33        2.075674   0.000000
   34        2.078097   0.000000
   35        2.251686   0.000000
   36        2.350389   0.000000
   37        2.724978   0.000000
   38        2.739100   0.000000
   39        2.751189   0.000000
   40        2.752502   0.000000
   41        3.549091   0.000000
   42        3.552127   0.000000
   43        3.921488   0.000000
   44        3.930419   0.000000
   45        4.105909   0.000000
   46        4.107973   0.000000
   47        4.227111   0.000000
   48        4.242298   0.000000
   49        5.132576   0.000000
   50        5.132898   0.000000
   51        5.248157   0.000000
   52        5.248478   0.000000
   53        5.636659   0.000000
   54        5.637902   0.000000
   55        6.104714   0.000000
   56        6.119261   0.000000
   57        7.084731   0.000000
   58        7.084852   0.000000
   59        7.363730   0.000000
   60        7.364606   0.000000
   61        7.901247   0.000000
   62        7.921298   0.000000
   63        8.207054   0.000000
   64        8.207060   0.000000
   65        8.483943   0.000000
   66        8.487668   0.000000
   67        8.539090   0.000000
   68        8.548161   0.000000
   69        8.571721   0.000000
   70        8.581237   0.000000
   71        9.175001   0.000000
   72        9.181575   0.000000
   73        9.303566   0.000000
   74        9.304499   0.000000
   75        9.353328   0.000000
   76        9.360331   0.000000
   77        9.452610   0.000000
   78        9.455385   0.000000
   79        9.602530   0.000000
   80        9.603599   0.000000
   81        9.620089   0.000000
   82        9.624457   0.000000
   83        9.632561   0.000000
   84        9.644925   0.000000
   85       10.134930   0.000000
   86       10.135147   0.000000
   87       10.213414   0.000000
   88       10.217611   0.000000
   89       10.250590   0.000000
   90       10.251173   0.000000
   91       10.355915   0.000000
   92       10.362436   0.000000
   93       10.417868   0.000000
   94       10.424691   0.000000
   95       10.635803   0.000000
   96       10.647517   0.000000
   97       10.653649   0.000000
   98       10.654244   0.000000
   99       10.721938   0.000000
  100       10.723121   0.000000
  101       11.013718   0.000000
  102       11.018019   0.000000
  103       11.075901   0.000000
  104       11.080147   0.000000
  105       11.286954   0.000000
  106       11.291192   0.000000
  107       11.698060   0.000000
  108       11.699178   0.000000
  109       11.735147   0.000000
  110       11.735852   0.000000
  111       12.002397   0.000000
  112       12.005808   0.000000
  113       12.281615   0.000000
  114       12.282778   0.000000
  115       12.347840   0.000000
  116       12.348727   0.000000
  117       12.565638   0.000000
  118       12.568822   0.000000
  119       13.279065   0.000000
  120       13.280964   0.000000
  121       13.334011   0.000000
  122       13.338598   0.000000
  123       13.523732   0.000000
  124       13.525586   0.000000
  125       13.549661   0.000000
  126       13.549895   0.000000
  127       13.560186   0.000000
  128       13.560961   0.000000
  129       14.176718   0.000000
  130       14.178228   0.000000
  131       14.216831   0.000000
  132       14.219933   0.000000
  133       14.629093   0.000000
  134       14.630351   0.000000
  135       14.755493   0.000000
  136       14.762678   0.000000
  137       14.838959   0.000000
  138       14.843746   0.000000
  139       15.044855   0.000000
  140       15.053780   0.000000
  141       15.372702   0.000000
  142       15.400551   0.000000
  143       15.464665   0.000000
  144       15.500982   0.000000
 
  0.1400000E+00  0.0000000E+00  0.0000000E+00  0.4901961E-02
    1      -17.039286   1.000000
    2      -17.038362   1.000000
    3      -15.483355   1.000000
    4      -15.480425   1.000000
    5      -10.982654   1.000000
    6      -10.978184   1.000000
    7       -8.540753   1.000000
    8       -8.538680   1.000000
    9       -7.309005   1.000000
   10       -7.307558   1.000000
   11       -6.676263   1.000000
   12       -6.622684   1.000000
   13       -6.304530   1.000000
   14       -6.241310   1.000000
   15       -5.168144   1.000000
   16       -5.125504   1.000000
   17       -4.501702   1.000000
   18       -4.445117   1.000000
   19       -3.433135   1.000000
   20       -3.429395   1.000000
   21       -1.300224   0.000000
   22       -1.298495   0.000000
   23       -0.235118   0.000000
   24       -0.129645   0.000000
   25        0.375536   0.000000
   26        0.420944   0.000000
   27        0.774612   0.000000
   28        0.877333   0.000000
   29        1.426991   0.000000
   30        1.460041   0.000000
   31        1.923489   0.000000
   32        1.925898   0.000000
   33        2.104310   0.000000
   34        2.105905   0.000000
   35        2.189243   0.000000
   36        2.297555   0.000000
   37        2.734210   0.000000
   38        2.749948   0.000000
   39        2.780325   0.000000
   40        2.781112   0.000000
   41        3.567233   0.000000
   42        3.570599   0.000000
   43        3.897428   0.000000
   44        3.909697   0.000000
   45        4.061705   0.000000
   46        4.065264   0.000000
   47        4.221735   0.000000
   48        4.237107   0.000000
   49        5.156007   0.000000
   50        5.156359   0.000000
   51        5.274029   0.000000
   52        5.274507   0.000000
   53        5.557890   0.000000
   54        5.559317   0.000000
   55        6.165296   0.000000
   56        6.179198   0.000000
   57        7.114792   0.000000
   58        7.114901   0.000000
   59        7.394896   0.000000
   60        7.395851   0.000000
   61        7.970227   0.000000
   62        7.986884   0.000000
   63        8.244553   0.000000
   64        8.244836   0.000000
   65        8.552176   0.000000
   66        8.552538   0.000000
   67        8.579920   0.000000
   68        8.598197   0.000000
   69        8.607490   0.000000
   70        8.613052   0.000000
   71        9.212835   0.000000
   72        9.219408   0.000000
   73        9.245716   0.000000
   74        9.253556   0.000000
   75        9.341715   0.000000
   76        9.342298   0.000000
   77        9.484646   0.000000
   78        9.487654   0.000000
   79        9.597350   0.000000
   80        9.599497   0.000000
   81        9.646040   0.000000
   82        9.648301   0.000000
   83        9.672143   0.000000
   84        9.683915   0.000000
   85       10.045014   0.000000
   86       10.045614   0.000000
   87       10.221270   0.000000
   88       10.222033   0.000000
   89       10.263084   0.000000
   90       10.267083   0.000000
   91       10.327513   0.000000
   92       10.328346   0.000000
   93       10.359177   0.000000
   94       10.366311   0.000000
   95       10.529422   0.000000
   96       10.530051   0.000000
   97       10.604427   0.000000
   98       10.620338   0.000000
   99       10.748984   0.000000
  100       10.749662   0.000000
  101       10.946130   0.000000
  102       10.949507   0.000000
  103       11.057850   0.000000
  104       11.064458   0.000000
  105       11.332441   0.000000
  106       11.338129   0.000000
  107       11.641627   0.000000
  108       11.641850   0.000000
  109       11.749083   0.000000
  110       11.749192   0.000000
  111       11.857041   0.000000
  112       11.861426   0.000000
  113       12.231068   0.000000
  114       12.231980   0.000000
  115       12.368588   0.000000
  116       12.369331   0.000000
  117       12.588053   0.000000
  118       12.591684   0.000000
  119       13.284022   0.000000
  120       13.286229   0.000000
  121       13.367246   0.000000
  122       13.371735   0.000000
  123       13.457578   0.000000
  124       13.458470   0.000000
  125       13.462953   0.000000
  126       13.463541   0.000000
  127       13.562121   0.000000
  128       13.562867   0.000000
  129       14.159482   0.000000
  130       14.162653   0.000000
  131       14.245249   0.000000
  132       14.246698   0.000000
  133       14.670957   0.000000
  134       14.672161   0.000000
  135       14.724360   0.000000
  136       14.729943   0.000000
  137       14.768542   0.000000
  138       14.770635   0.000000
  139       15.154723   0.000000
  140       15.174937   0.000000
  141       15.304990   0.000000
  142       15.313452   0.000000
  143       15.392945   0.000000
  144       15.427738   0.000000
 
  0.1500000E+00  0.0000000E+00  0.0000000E+00  0.4901961E-02
    1      -17.017316   1.000000
    2      -17.016339   1.000000
    3      -15.472945   1.000000
    4      -15.469836   1.000000
    5      -10.998654   1.000000
    6      -10.993910   1.000000
    7       -8.591105   1.000000
    8       -8.588887   1.000000
    9       -7.289216   1.000000
   10       -7.287561   1.000000
   11       -6.688489   1.000000
   12       -6.633989   1.000000
   13       -6.312400   1.000000
   14       -6.248001   1.000000
   15       -5.194671   1.000000
   16       -5.154242   1.000000
   17       -4.484752   1.000000
   18       -4.429975   1.000000
   19       -3.447461   1.000000
   20       -3.443528   1.000000
   21       -1.276056   0.000000
   22       -1.273943   0.000000
   23       -0.313751   0.000000
   24       -0.214035   0.000000
   25        0.434304   0.000000
   26        0.487820   0.000000
   27        0.764641   0.000000
   28        0.862393   0.000000
   29        1.454109   0.000000
   30        1.485655   0.000000
   31        1.952503   0.000000
   32        1.956280   0.000000
   33        2.119669   0.000000
   34        2.134742   0.000000
   35        2.147520   0.000000
   36        2.249223   0.000000
   37        2.743033   0.000000
   38        2.760000   0.000000
   39        2.811611   0.000000
   40        2.812260   0.000000
   41        3.586701   0.000000
   42        3.590557   0.000000
   43        3.838703   0.000000
   44        3.851729   0.000000
   45        4.063368   0.000000
   46        4.066035   0.000000
   47        4.228732   0.000000
   48        4.244448   0.000000
   49        5.181169   0.000000
   50        5.181563   0.000000
   51        5.298327   0.000000
   52        5.298864   0.000000
   53        5.482164   0.000000
   54        5.483863   0.000000
   55        6.227262   0.000000
   56        6.240409   0.000000
   57        7.146508   0.000000
   58        7.146614   0.000000
   59        7.425975   0.000000
   60        7.427065   0.000000
   61        8.021776   0.000000
   62        8.034760   0.000000
   63        8.275544   0.000000
   64        8.276226   0.000000
   65        8.545720   0.000000
   66        8.549465   0.000000
   67        8.634418   0.000000
   68        8.649329   0.000000
   69        8.712790   0.000000
   70        8.720187   0.000000
   71        9.141375   0.000000
   72        9.151525   0.000000
   73        9.240340   0.000000
   74        9.246921   0.000000
   75        9.381132   0.000000
   76        9.381423   0.000000
   77        9.505730   0.000000
   78        9.507509   0.000000
   79        9.590984   0.000000
   80        9.592048   0.000000
   81        9.681623   0.000000
   82        9.683433   0.000000
   83        9.702832   0.000000
   84        9.712607   0.000000
   85        9.957318   0.000000
   86        9.957510   0.000000
   87       10.156836   0.000000
   88       10.156886   0.000000
   89       10.212678   0.000000
   90       10.212729   0.000000
   91       10.321953   0.000000
   92       10.325589   0.000000
   93       10.375677   0.000000
   94       10.383608   0.000000
   95       10.432755   0.000000
   96       10.434443   0.000000
   97       10.612364   0.000000
   98       10.627962   0.000000
   99       10.755669   0.000000
  100       10.758076   0.000000
  101       10.851540   0.000000
  102       10.854896   0.000000
  103       11.107304   0.000000
  104       11.116837   0.000000
  105       11.312964   0.000000
  106       11.317435   0.000000
  107       11.660113   0.000000
  108       11.664205   0.000000
  109       11.675567   0.000000
  110       11.676405   0.000000
  111       11.797694   0.000000
  112       11.800840   0.000000
  113       12.190648   0.000000
  114       12.191245   0.000000
  115       12.396520   0.000000
  116       12.397127   0.000000
  117       12.612566   0.000000
  118       12.616661   0.000000
  119       13.253697   0.000000
  120       13.257605   0.000000
  121       13.261971   0.000000
  122       13.262171   0.000000
  123       13.395238   0.000000
  124       13.395813   0.000000
  125       13.497560   0.000000
  126       13.502549   0.000000
  127       13.603177   0.000000
  128       13.604566   0.000000
  129       14.101976   0.000000
  130       14.105081   0.000000
  131       14.311258   0.000000
  132       14.312547   0.000000
  133       14.671232   0.000000
  134       14.677056   0.000000
  135       14.704221   0.000000
  136       14.704581   0.000000
  137       14.717322   0.000000
  138       14.719281   0.000000
  139       15.205359   0.000000
  140       15.214581   0.000000
  141       15.258365   0.000000
  142       15.274657   0.000000
  143       15.369358   0.000000
  144       15.555090   0.000000
 
  0.1600000E+00  0.0000000E+00  0.0000000E+00  0.4901961E-02
    1      -16.993931   1.000000
    2      -16.992903   1.000000
    3      -15.462194   1.000000
    4      -15.458914   1.000000
    5      -11.015697   1.000000
    6      -11.010691   1.000000
    7       -8.644828   1.000000
    8       -8.642471   1.000000
    9       -7.268199   1.000000
   10       -7.266323   1.000000
   11       -6.703814   1.000000
   12       -6.650250   1.000000
   13       -6.312966   1.000000
   14       -6.249295   1.000000
   15       -5.219521   1.000000
   16       -5.181221   1.000000
   17       -4.467912   1.000000
   18       -4.414935   1.000000
   19       -3.463046   1.000000
   20       -3.458924   1.000000
   21       -1.250375   0.000000
   22       -1.247771   0.000000
   23       -0.395119   0.000000
   24       -0.301107   0.000000
   25        0.482751   0.000000
   26        0.544691   0.000000
   27        0.749687   0.000000
   28        0.842451   0.000000
   29        1.481628   0.000000
   30        1.511460   0.000000
   31        1.979704   0.000000
   32        1.988256   0.000000
   33        2.077138   0.000000
   34        2.166743   0.000000
   35        2.172903   0.000000
   36        2.206563   0.000000
   37        2.751373   0.000000
   38        2.769371   0.000000
   39        2.845034   0.000000
   40        2.845646   0.000000
   41        3.607469   0.000000
   42        3.612232   0.000000
   43        3.770690   0.000000
   44        3.783587   0.000000
   45        4.085981   0.000000
   46        4.087534   0.000000
   47        4.248814   0.000000
   48        4.265071   0.000000
   49        5.207979   0.000000
   50        5.208454   0.000000
   51        5.309154   0.000000
   52        5.309683   0.000000
   53        5.422377   0.000000
   54        5.424360   0.000000
   55        6.289853   0.000000
   56        6.302152   0.000000
   57        7.179855   0.000000
   58        7.179969   0.000000
   59        7.456850   0.000000
   60        7.458112   0.000000
   61        8.051592   0.000000
   62        8.060912   0.000000
   63        8.298582   0.000000
   64        8.299777   0.000000
   65        8.547151   0.000000
   66        8.551384   0.000000
   67        8.686964   0.000000
   68        8.700736   0.000000
   69        8.808472   0.000000
   70        8.811926   0.000000
   71        9.058485   0.000000
   72        9.075123   0.000000
   73        9.247601   0.000000
   74        9.254084   0.000000
   75        9.421599   0.000000
   76        9.421788   0.000000
   77        9.509325   0.000000
   78        9.510247   0.000000
   79        9.586738   0.000000
   80        9.587259   0.000000
   81        9.718392   0.000000
   82        9.719837   0.000000
   83        9.722654   0.000000
   84        9.727263   0.000000
   85        9.870287   0.000000
   86        9.872601   0.000000
   87       10.059247   0.000000
   88       10.060076   0.000000
   89       10.135981   0.000000
   90       10.137182   0.000000
   91       10.353502   0.000000
   92       10.360910   0.000000
   93       10.383930   0.000000
   94       10.386167   0.000000
   95       10.407823   0.000000
   96       10.411552   0.000000
   97       10.626434   0.000000
   98       10.640403   0.000000
   99       10.691048   0.000000
  100       10.693137   0.000000
  101       10.855826   0.000000
  102       10.857316   0.000000
  103       11.158098   0.000000
  104       11.172670   0.000000
  105       11.240373   0.000000
  106       11.242028   0.000000
  107       11.522027   0.000000
  108       11.524428   0.000000
  109       11.748863   0.000000
  110       11.757610   0.000000
  111       11.817303   0.000000
  112       11.819302   0.000000
  113       12.152787   0.000000
  114       12.153100   0.000000
  115       12.428851   0.000000
  116       12.429337   0.000000
  117       12.637284   0.000000
  118       12.641879   0.000000
  119       13.116075   0.000000
  120       13.117594   0.000000
  121       13.189985   0.000000
  122       13.191165   0.000000
  123       13.380136   0.000000
  124       13.380313   0.000000
  125       13.552117   0.000000
  126       13.558191   0.000000
  127       13.654289   0.000000
  128       13.655830   0.000000
  129       14.044480   0.000000
  130       14.047535   0.000000
  131       14.370836   0.000000
  132       14.372316   0.000000
  133       14.601647   0.000000
  134       14.609680   0.000000
  135       14.642902   0.000000
  136       14.645516   0.000000
  137       14.765264   0.000000
  138       14.767296   0.000000
  139       15.136784   0.000000
  140       15.153900   0.000000
  141       15.239742   0.000000
  142       15.265343   0.000000
  143       15.457627   0.000000
  144       15.463008   0.000000
 
  0.1700000E+00  0.0000000E+00  0.0000000E+00  0.4901961E-02
    1      -16.969152   1.000000
    2      -16.968076   1.000000
    3      -15.451186   1.000000
    4      -15.447743   1.000000
    5      -11.033727   1.000000
    6      -11.028473   1.000000
    7       -8.701806   1.000000
    8       -8.699319   1.000000
    9       -7.245993   1.000000
   10       -7.243884   1.000000
   11       -6.721667   1.000000
   12       -6.670457   1.000000
   13       -6.306880   1.000000
   14       -6.245405   1.000000
   15       -5.242539   1.000000
   16       -5.206285   1.000000
   17       -4.451239   1.000000
   18       -4.400053   1.000000
   19       -3.479917   1.000000
   20       -3.475608   1.000000
   21       -1.223256   0.000000
   22       -1.220010   0.000000
   23       -0.478083   0.000000
   24       -0.389589   0.000000
   25        0.518393   0.000000
   26        0.588497   0.000000
   27        0.728705   0.000000
   28        0.816582   0.000000
   29        1.509381   0.000000
   30        1.537388   0.000000
   31        1.988420   0.000000
   32        2.021080   0.000000
   33        2.054955   0.000000
   34        2.169247   0.000000
   35        2.201240   0.000000
   36        2.206194   0.000000
   37        2.759178   0.000000
   38        2.777956   0.000000
   39        2.880596   0.000000
   40        2.881217   0.000000
   41        3.628487   0.000000
   42        3.635817   0.000000
   43        3.709791   0.000000
   44        3.720753   0.000000
   45        4.116520   0.000000
   46        4.117356   0.000000
   47        4.282375   0.000000
   48        4.299388   0.000000
   49        5.236025   0.000000
   50        5.236895   0.000000
   51        5.274542   0.000000
   52        5.275206   0.000000
   53        5.411677   0.000000
   54        5.413465   0.000000
   55        6.352402   0.000000
   56        6.363775   0.000000
   57        7.214804   0.000000
   58        7.214935   0.000000
   59        7.487121   0.000000
   60        7.488583   0.000000
   61        8.057691   0.000000
   62        8.063743   0.000000
   63        8.311372   0.000000
   64        8.313175   0.000000
   65        8.555671   0.000000
   66        8.560314   0.000000
   67        8.738136   0.000000
   68        8.751573   0.000000
   69        8.834828   0.000000
   70        8.837088   0.000000
   71        9.051415   0.000000
   72        9.076421   0.000000
   73        9.223032   0.000000
   74        9.228160   0.000000
   75        9.461640   0.000000
   76        9.461978   0.000000
   77        9.503219   0.000000
   78        9.505621   0.000000
   79        9.579907   0.000000
   80        9.582265   0.000000
   81        9.699342   0.000000
   82        9.702684   0.000000
   83        9.754039   0.000000
   84        9.754337   0.000000
   85        9.805340   0.000000
   86        9.813737   0.000000
   87        9.951363   0.000000
   88        9.953046   0.000000
   89       10.120596   0.000000
   90       10.123021   0.000000
   91       10.290501   0.000000
   92       10.298210   0.000000
   93       10.434513   0.000000
   94       10.439339   0.000000
   95       10.445685   0.000000
   96       10.447380   0.000000
   97       10.626367   0.000000
   98       10.630450   0.000000
   99       10.632925   0.000000
  100       10.641998   0.000000
  101       10.894894   0.000000
  102       10.895588   0.000000
  103       11.149159   0.000000
  104       11.161014   0.000000
  105       11.228713   0.000000
  106       11.236958   0.000000
  107       11.364995   0.000000
  108       11.367774   0.000000
  109       11.841191   0.000000
  110       11.842323   0.000000
  111       11.863775   0.000000
  112       11.875274   0.000000
  113       12.111205   0.000000
  114       12.111421   0.000000
  115       12.464308   0.000000
  116       12.464722   0.000000
  117       12.660733   0.000000
  118       12.665846   0.000000
  119       12.974672   0.000000
  120       12.976409   0.000000
  121       13.107680   0.000000
  122       13.108004   0.000000
  123       13.387361   0.000000
  124       13.387632   0.000000
  125       13.597843   0.000000
  126       13.603829   0.000000
  127       13.714652   0.000000
  128       13.715744   0.000000
  129       13.990604   0.000000
  130       13.993580   0.000000
  131       14.422234   0.000000
  132       14.424077   0.000000
  133       14.519052   0.000000
  134       14.527270   0.000000
  135       14.588292   0.000000
  136       14.591373   0.000000
  137       14.811088   0.000000
  138       14.814203   0.000000
  139       15.040590   0.000000
  140       15.043750   0.000000
  141       15.228729   0.000000
  142       15.231612   0.000000
  143       15.350089   0.000000
  144       15.375001   0.000000
 
  0.1800000E+00  0.0000000E+00  0.0000000E+00  0.4901961E-02
    1      -16.943003   1.000000
    2      -16.941883   1.000000
    3      -15.440008   1.000000
    4      -15.436410   1.000000
    5      -11.052671   1.000000
    6      -11.047182   1.000000
    7       -8.761896   1.000000
    8       -8.759288   1.000000
    9       -7.222638   1.000000
   10       -7.220283   1.000000
   11       -6.741277   1.000000
   12       -6.693245   1.000000
   13       -6.295194   1.000000
   14       -6.236785   1.000000
   15       -5.263613   1.000000
   16       -5.229325   1.000000
   17       -4.434806   1.000000
   18       -4.385403   1.000000
   19       -3.498092   1.000000
   20       -3.493597   1.000000
   21       -1.194811   0.000000
   22       -1.190693   0.000000
   23       -0.561609   0.000000
   24       -0.478434   0.000000
   25        0.539330   0.000000
   26        0.616653   0.000000
   27        0.701174   0.000000
   28        0.784264   0.000000
   29        1.537226   0.000000
   30        1.563400   0.000000
   31        1.961916   0.000000
   32        2.051851   0.000000
   33        2.075673   0.000000
   34        2.140884   0.000000
   35        2.236238   0.000000
   36        2.241443   0.000000
   37        2.766451   0.000000
   38        2.785663   0.000000
   39        2.918307   0.000000
   40        2.918958   0.000000
   41        3.637132   0.000000
   42        3.661332   0.000000
   43        3.669831   0.000000
   44        3.675744   0.000000
   45        4.151295   0.000000
   46        4.151674   0.000000
   47        4.329490   0.000000
   48        4.347468   0.000000
   49        5.206604   0.000000
   50        5.208614   0.000000
   51        5.267287   0.000000
   52        5.267305   0.000000
   53        5.436661   0.000000
   54        5.438269   0.000000
   55        6.414353   0.000000
   56        6.424732   0.000000
   57        7.251311   0.000000
   58        7.251471   0.000000
   59        7.516018   0.000000
   60        7.517715   0.000000
   61        8.042200   0.000000
   62        8.045689   0.000000
   63        8.310528   0.000000
   64        8.313005   0.000000
   65        8.559494   0.000000
   66        8.565213   0.000000
   67        8.779469   0.000000
   68        8.794633   0.000000
   69        8.800228   0.000000
   70        8.802747   0.000000
   71        9.127224   0.000000
   72        9.152384   0.000000
   73        9.167611   0.000000
   74        9.169367   0.000000
   75        9.472974   0.000000
   76        9.473510   0.000000
   77        9.513471   0.000000
   78        9.513600   0.000000
   79        9.563111   0.000000
   80        9.566621   0.000000
   81        9.618057   0.000000
   82        9.618812   0.000000
   83        9.776043   0.000000
   84        9.778458   0.000000
   85        9.821406   0.000000
   86        9.827821   0.000000
   87        9.863864   0.000000
   88        9.865814   0.000000
   89       10.143060   0.000000
   90       10.146470   0.000000
   91       10.226310   0.000000
   92       10.231735   0.000000
   93       10.463965   0.000000
   94       10.468587   0.000000
   95       10.502020   0.000000
   96       10.502190   0.000000
   97       10.600140   0.000000
   98       10.601191   0.000000
   99       10.616934   0.000000
  100       10.624304   0.000000
  101       10.940796   0.000000
  102       10.941425   0.000000
  103       11.103916   0.000000
  104       11.114472   0.000000
  105       11.210906   0.000000
  106       11.213271   0.000000
  107       11.287422   0.000000
  108       11.300959   0.000000
  109       11.864080   0.000000
  110       11.865011   0.000000
  111       11.980581   0.000000
  112       11.993231   0.000000
  113       12.064214   0.000000
  114       12.066095   0.000000
  115       12.501604   0.000000
  116       12.502087   0.000000
  117       12.681540   0.000000
  118       12.687113   0.000000
  119       12.837406   0.000000
  120       12.839489   0.000000
  121       13.030371   0.000000
  122       13.030740   0.000000
  123       13.402156   0.000000
  124       13.402693   0.000000
  125       13.636952   0.000000
  126       13.642566   0.000000
  127       13.777893   0.000000
  128       13.778532   0.000000
  129       13.945618   0.000000
  130       13.948474   0.000000
  131       14.429715   0.000000
  132       14.437796   0.000000
  133       14.463625   0.000000
  134       14.465277   0.000000
  135       14.533221   0.000000
  136       14.536144   0.000000
  137       14.834719   0.000000
  138       14.837962   0.000000
  139       14.970457   0.000000
  140       14.971167   0.000000
  141       15.174679   0.000000
  142       15.177084   0.000000
  143       15.306182   0.000000
  144       15.309561   0.000000
 
  0.1900000E+00  0.0000000E+00  0.0000000E+00  0.4901961E-02
    1      -16.915512   1.000000
    2      -16.914351   1.000000
    3      -15.428759   1.000000
    4      -15.425016   1.000000
    5      -11.072439   1.000000
    6      -11.066732   1.000000
    7       -8.824933   1.000000
    8       -8.822215   1.000000
    9       -7.198186   1.000000
   10       -7.195572   1.000000
   11       -6.761813   1.000000
   12       -6.717275   1.000000
   13       -6.278985   1.000000
   14       -6.224001   1.000000
   15       -5.282675   1.000000
   16       -5.250279   1.000000
   17       -4.418709   1.000000
   18       -4.371084   1.000000
   19       -3.517586   1.000000
   20       -3.512904   1.000000
   21       -1.165242   0.000000
   22       -1.159882   0.000000
   23       -0.644699   0.000000
   24       -0.566759   0.000000
   25        0.544546   0.000000
   26        0.627547   0.000000
   27        0.667021   0.000000
   28        0.745349   0.000000
   29        1.565023   0.000000
   30        1.589433   0.000000
   31        1.927695   0.000000
   32        2.066175   0.000000
   33        2.110933   0.000000
   34        2.132372   0.000000
   35        2.272690   0.000000
   36        2.278097   0.000000
   37        2.773289   0.000000
   38        2.792486   0.000000
   39        2.958180   0.000000
   40        2.958861   0.000000
   41        3.614905   0.000000
   42        3.634568   0.000000
   43        3.689373   0.000000
   44        3.691848   0.000000
   45        4.189030   0.000000
   46        4.189105   0.000000
   47        4.389920   0.000000
   48        4.409035   0.000000
   49        5.134520   0.000000
   50        5.136582   0.000000
   51        5.298634   0.000000
   52        5.298899   0.000000
   53        5.471952   0.000000
   54        5.473521   0.000000
   55        6.475156   0.000000
   56        6.484474   0.000000
   57        7.289314   0.000000
   58        7.289518   0.000000
   59        7.542200   0.000000
   60        7.544179   0.000000
   61        8.010198   0.000000
   62        8.011839   0.000000
   63        8.291702   0.000000
   64        8.294844   0.000000
   65        8.540503   0.000000
   66        8.547275   0.000000
   67        8.756237   0.000000
   68        8.756862   0.000000
   69        8.834822   0.000000
   70        8.842929   0.000000
   71        9.093704   0.000000
   72        9.093993   0.000000
   73        9.219639   0.000000
   74        9.240710   0.000000
   75        9.388472   0.000000
   76        9.390403   0.000000
   77        9.520693   0.000000
   78        9.522965   0.000000
   79        9.551783   0.000000
   80        9.552017   0.000000
   81        9.597844   0.000000
   82        9.600022   0.000000
   83        9.759110   0.000000
   84        9.767299   0.000000
   85        9.842686   0.000000
   86        9.842890   0.000000
   87        9.859123   0.000000
   88        9.864141   0.000000
   89       10.172107   0.000000
   90       10.176017   0.000000
   91       10.177982   0.000000
   92       10.178930   0.000000
   93       10.490819   0.000000
   94       10.494227   0.000000
   95       10.519931   0.000000
   96       10.520805   0.000000
   97       10.601602   0.000000
   98       10.603125   0.000000
   99       10.615551   0.000000
  100       10.617645   0.000000
  101       10.981568   0.000000
  102       10.984485   0.000000
  103       11.071452   0.000000
  104       11.071909   0.000000
  105       11.098394   0.000000
  106       11.108681   0.000000
  107       11.352235   0.000000
  108       11.369515   0.000000
  109       11.882682   0.000000
  110       11.883136   0.000000
  111       11.992529   0.000000
  112       11.992788   0.000000
  113       12.109182   0.000000
  114       12.126267   0.000000
  115       12.536536   0.000000
  116       12.537693   0.000000
  117       12.698323   0.000000
  118       12.703354   0.000000
  119       12.711943   0.000000
  120       12.714745   0.000000
  121       12.960310   0.000000
  122       12.961071   0.000000
  123       13.424533   0.000000
  124       13.425152   0.000000
  125       13.672308   0.000000
  126       13.677565   0.000000
  127       13.838075   0.000000
  128       13.838521   0.000000
  129       13.914310   0.000000
  130       13.917009   0.000000
  131       14.342508   0.000000
  132       14.349021   0.000000
  133       14.469120   0.000000
  134       14.472489   0.000000
  135       14.484792   0.000000
  136       14.488507   0.000000
  137       14.800891   0.000000
  138       14.803984   0.000000
  139       14.978269   0.000000
  140       14.978890   0.000000
  141       15.094520   0.000000
  142       15.098945   0.000000
  143       15.320140   0.000000
  144       15.328290   0.000000
 
  0.2000000E+00  0.0000000E+00  0.0000000E+00  0.4901961E-02
    1      -16.886705   1.000000
    2      -16.885506   1.000000
    3      -15.417540   1.000000
    4      -15.413663   1.000000
    5      -11.092921   1.000000
    6      -11.087014   1.000000
    7       -8.890734   1.000000
    8       -8.887918   1.000000
    9       -7.172690   1.000000
   10       -7.169801   1.000000
   11       -6.782477   1.000000
   12       -6.741413   1.000000
   13       -6.259160   1.000000
   14       -6.207624   1.000000
   15       -5.299698   1.000000
   16       -5.269125   1.000000
   17       -4.403044   1.000000
   18       -4.357199   1.000000
   19       -3.538405   1.000000
   20       -3.533533   1.000000
   21       -1.134920   0.000000
   22       -1.127657   0.000000
   23       -0.726284   0.000000
   24       -0.653787   0.000000
   25        0.534039   0.000000
   26        0.620905   0.000000
   27        0.626566   0.000000
   28        0.700035   0.000000
   29        1.592597   0.000000
   30        1.615348   0.000000
   31        1.893449   0.000000
   32        2.047445   0.000000
   33        2.150630   0.000000
   34        2.157260   0.000000
   35        2.310146   0.000000
   36        2.315814   0.000000
   37        2.779933   0.000000
   38        2.798584   0.000000
   39        3.000219   0.000000
   40        3.000914   0.000000
   41        3.603624   0.000000
   42        3.618910   0.000000
   43        3.719483   0.000000
   44        3.720080   0.000000
   45        4.228980   0.000000
   46        4.229123   0.000000
   47        4.463142   0.000000
   48        4.483507   0.000000
   49        5.063142   0.000000
   50        5.065322   0.000000
   51        5.331640   0.000000
   52        5.332002   0.000000
   53        5.511731   0.000000
   54        5.513305   0.000000
   55        6.534276   0.000000
   56        6.542461   0.000000
   57        7.328712   0.000000
   58        7.328978   0.000000
   59        7.563356   0.000000
   60        7.565693   0.000000
   61        7.967739   0.000000
   62        7.968052   0.000000
   63        8.250721   0.000000
   64        8.254391   0.000000
   65        8.496137   0.000000
   66        8.502754   0.000000
   67        8.737426   0.000000
   68        8.738294   0.000000
   69        8.861168   0.000000
   70        8.866844   0.000000
   71        9.022594   0.000000
   72        9.026285   0.000000
   73        9.274928   0.000000
   74        9.278912   0.000000
   75        9.299806   0.000000
   76        9.315068   0.000000
   77        9.445019   0.000000
   78        9.445093   0.000000
   79        9.590743   0.000000
   80        9.591177   0.000000
   81        9.626913   0.000000
   82        9.628953   0.000000
   83        9.747057   0.000000
   84        9.762370   0.000000
   85        9.852870   0.000000
   86        9.854594   0.000000
   87        9.900462   0.000000
   88        9.904160   0.000000
   89       10.153584   0.000000
   90       10.157563   0.000000
   91       10.185356   0.000000
   92       10.188582   0.000000
   93       10.489783   0.000000
   94       10.491984   0.000000
   95       10.511488   0.000000
   96       10.513534   0.000000
   97       10.624253   0.000000
   98       10.632438   0.000000
   99       10.658191   0.000000
  100       10.659136   0.000000
  101       10.904348   0.000000
  102       10.910034   0.000000
  103       11.062535   0.000000
  104       11.064696   0.000000
  105       11.125869   0.000000
  106       11.134037   0.000000
  107       11.420973   0.000000
  108       11.441399   0.000000
  109       11.893010   0.000000
  110       11.893089   0.000000
  111       11.925493   0.000000
  112       11.925563   0.000000
  113       12.217796   0.000000
  114       12.236755   0.000000
  115       12.534803   0.000000
  116       12.539500   0.000000
  117       12.636073   0.000000
  118       12.637102   0.000000
  119       12.708715   0.000000
  120       12.714381   0.000000
  121       12.895797   0.000000
  122       12.896194   0.000000
  123       13.458892   0.000000
  124       13.459281   0.000000
  125       13.704694   0.000000
  126       13.709527   0.000000
  127       13.889869   0.000000
  128       13.891006   0.000000
  129       13.899736   0.000000
  130       13.901586   0.000000
  131       14.259828   0.000000
  132       14.264995   0.000000
  133       14.394183   0.000000
  134       14.397296   0.000000
  135       14.473244   0.000000
  136       14.477453   0.000000
  137       14.767601   0.000000
  138       14.770974   0.000000
  139       15.023105   0.000000
  140       15.026215   0.000000
  141       15.031805   0.000000
  142       15.047023   0.000000
  143       15.352858   0.000000
  144       15.370407   0.000000
 
  0.2100000E+00  0.0000000E+00  0.0000000E+00  0.4901961E-02
    1      -16.856613   1.000000
    2      -16.855381   1.000000
    3      -15.406465   1.000000
    4      -15.402464   1.000000
    5      -11.113990   1.000000
    6      -11.107903   1.000000
    7       -8.959100   1.000000
    8       -8.956197   1.000000
    9       -7.146211   1.000000
   10       -7.143032   1.000000
   11       -6.802573   1.000000
   12       -6.764779   1.000000
   13       -6.236429   1.000000
   14       -6.188180   1.000000
   15       -5.314697   1.000000
   16       -5.285889   1.000000
   17       -4.387933   1.000000
   18       -4.343874   1.000000
   19       -3.560550   1.000000
   20       -3.555483   1.000000
   21       -1.104710   0.000000
   22       -1.094170   0.000000
   23       -0.804907   0.000000
   24       -0.738787   0.000000
   25        0.508772   0.000000
   26        0.580394   0.000000
   27        0.597804   0.000000
   28        0.648797   0.000000
   29        1.619704   0.000000
   30        1.640857   0.000000
   31        1.857693   0.000000
   32        2.012155   0.000000
   33        2.192995   0.000000
   34        2.195655   0.000000
   35        2.348226   0.000000
   36        2.354214   0.000000
   37        2.786808   0.000000
   38        2.804349   0.000000
   39        3.044397   0.000000
   40        3.045085   0.000000
   41        3.614448   0.000000
   42        3.625199   0.000000
   43        3.751907   0.000000
   44        3.751978   0.000000
   45        4.270843   0.000000
   46        4.271153   0.000000
   47        4.548341   0.000000
   48        4.570002   0.000000
   49        4.994834   0.000000
   50        4.997069   0.000000
   51        5.366028   0.000000
   52        5.366478   0.000000
   53        5.554572   0.000000
   54        5.556165   0.000000
   55        6.591083   0.000000
   56        6.598049   0.000000
   57        7.369331   0.000000
   58        7.369686   0.000000
   59        7.575558   0.000000
   60        7.578358   0.000000
   61        7.920797   0.000000
   62        7.921510   0.000000
   63        8.185712   0.000000
   64        8.189635   0.000000
   65        8.442583   0.000000
   66        8.448454   0.000000
   67        8.714422   0.000000
   68        8.715659   0.000000
   69        8.830959   0.000000
   70        8.832096   0.000000
   71        8.985434   0.000000
   72        8.992805   0.000000
   73        9.194289   0.000000
   74        9.194721   0.000000
   75        9.336762   0.000000
   76        9.338176   0.000000
   77        9.368606   0.000000
   78        9.379499   0.000000
   79        9.628471   0.000000
   80        9.628946   0.000000
   81        9.670130   0.000000
   82        9.671703   0.000000
   83        9.763684   0.000000
   84        9.782444   0.000000
   85        9.869015   0.000000
   86        9.872727   0.000000
   87        9.939432   0.000000
   88        9.941421   0.000000
   89       10.152812   0.000000
   90       10.154002   0.000000
   91       10.165310   0.000000
   92       10.170978   0.000000
   93       10.487088   0.000000
   94       10.488397   0.000000
   95       10.521091   0.000000
   96       10.522493   0.000000
   97       10.661753   0.000000
   98       10.674194   0.000000
   99       10.711843   0.000000
  100       10.711950   0.000000
  101       10.786822   0.000000
  102       10.791888   0.000000
  103       11.121383   0.000000
  104       11.122936   0.000000
  105       11.170017   0.000000
  106       11.174987   0.000000
  107       11.492108   0.000000
  108       11.514660   0.000000
  109       11.854130   0.000000
  110       11.855118   0.000000
  111       11.889406   0.000000
  112       11.889930   0.000000
  113       12.317765   0.000000
  114       12.337768   0.000000
  115       12.456845   0.000000
  116       12.463006   0.000000
  117       12.657122   0.000000
  118       12.659018   0.000000
  119       12.704304   0.000000
  120       12.707821   0.000000
  121       12.839128   0.000000
  122       12.841097   0.000000
  123       13.509049   0.000000
  124       13.509388   0.000000
  125       13.732875   0.000000
  126       13.736962   0.000000
  127       13.897916   0.000000
  128       13.901034   0.000000
  129       13.930654   0.000000
  130       13.931022   0.000000
  131       14.184464   0.000000
  132       14.188597   0.000000
  133       14.308102   0.000000
  134       14.311892   0.000000
  135       14.431636   0.000000
  136       14.436603   0.000000
  137       14.770961   0.000000
  138       14.773736   0.000000
  139       14.982747   0.000000
  140       14.987016   0.000000
  141       15.080264   0.000000
  142       15.113678   0.000000
  143       15.394379   0.000000
  144       15.503907   0.000000
 
  0.2200000E+00  0.0000000E+00  0.0000000E+00  0.4901961E-02
    1      -16.825267   1.000000
    2      -16.824006   1.000000
    3      -15.395649   1.000000
    4      -15.391537   1.000000
    5      -11.135498   1.000000
    6      -11.129251   1.000000
    7       -9.029813   1.000000
    8       -9.026835   1.000000
    9       -7.118819   1.000000
   10       -7.115330   1.000000
   11       -6.821512   1.000000
   12       -6.786704   1.000000
   13       -6.211323   1.000000
   14       -6.166122   1.000000
   15       -5.327720   1.000000
   16       -5.300625   1.000000
   17       -4.373496   1.000000
   18       -4.331242   1.000000
   19       -3.584012   1.000000
   20       -3.578745   1.000000
   21       -1.077146   0.000000
   22       -1.059762   0.000000
   23       -0.877516   0.000000
   24       -0.820915   0.000000
   25        0.470478   0.000000
   26        0.529191   0.000000
   27        0.560304   0.000000
   28        0.592329   0.000000
   29        1.645998   0.000000
   30        1.665364   0.000000
   31        1.817859   0.000000
   32        1.966555   0.000000
   33        2.237534   0.000000
   34        2.238608   0.000000
   35        2.386452   0.000000
   36        2.392816   0.000000
   37        2.794587   0.000000
   38        2.810494   0.000000
   39        3.090641   0.000000
   40        3.091305   0.000000
   41        3.649367   0.000000
   42        3.654782   0.000000
   43        3.786578   0.000000
   44        3.786818   0.000000
   45        4.314239   0.000000
   46        4.314694   0.000000
   47        4.644503   0.000000
   48        4.667448   0.000000
   49        4.930987   0.000000
   50        4.933167   0.000000
   51        5.401673   0.000000
   52        5.402226   0.000000
   53        5.599987   0.000000
   54        5.601605   0.000000
   55        6.644812   0.000000
   56        6.650447   0.000000
   57        7.410846   0.000000
   58        7.411335   0.000000
   59        7.572923   0.000000
   60        7.576279   0.000000
   61        7.877794   0.000000
   62        7.879354   0.000000
   63        8.098651   0.000000
   64        8.102501   0.000000
   65        8.392212   0.000000
   66        8.397252   0.000000
   67        8.671865   0.000000
   68        8.673329   0.000000
   69        8.728736   0.000000
   70        8.728966   0.000000
   71        8.982281   0.000000
   72        8.987876   0.000000
   73        9.161807   0.000000
   74        9.165235   0.000000
   75        9.231359   0.000000
   76        9.231504   0.000000
   77        9.413371   0.000000
   78        9.423580   0.000000
   79        9.663319   0.000000
   80        9.663518   0.000000
   81        9.718132   0.000000
   82        9.719373   0.000000
   83        9.796676   0.000000
   84        9.812198   0.000000
   85        9.896561   0.000000
   86        9.903985   0.000000
   87        9.960791   0.000000
   88        9.962389   0.000000
   89       10.097747   0.000000
   90       10.102780   0.000000
   91       10.191576   0.000000
   92       10.199298   0.000000
   93       10.509380   0.000000
   94       10.511167   0.000000
   95       10.522523   0.000000
   96       10.522837   0.000000
   97       10.699686   0.000000
   98       10.712253   0.000000
   99       10.717765   0.000000
  100       10.725210   0.000000
  101       10.764212   0.000000
  102       10.764339   0.000000
  103       11.188078   0.000000
  104       11.189021   0.000000
  105       11.214227   0.000000
  106       11.216226   0.000000
  107       11.561723   0.000000
  108       11.583118   0.000000
  109       11.794270   0.000000
  110       11.798678   0.000000
  111       11.864599   0.000000
  112       11.865072   0.000000
  113       12.383523   0.000000
  114       12.389717   0.000000
  115       12.406915   0.000000
  116       12.426735   0.000000
  117       12.661646   0.000000
  118       12.663230   0.000000
  119       12.704151   0.000000
  120       12.704806   0.000000
  121       12.808633   0.000000
  122       12.814425   0.000000
  123       13.574452   0.000000
  124       13.576155   0.000000
  125       13.752782   0.000000
  126       13.755405   0.000000
  127       13.906749   0.000000
  128       13.910017   0.000000
  129       13.951764   0.000000
  130       13.953254   0.000000
  131       14.114110   0.000000
  132       14.117324   0.000000
  133       14.225513   0.000000
  134       14.230027   0.000000
  135       14.388060   0.000000
  136       14.393103   0.000000
  137       14.801569   0.000000
  138       14.811109   0.000000
  139       14.955115   0.000000
  140       14.970415   0.000000
  141       15.125002   0.000000
  142       15.139555   0.000000
  143       15.383438   0.000000
  144       15.426406   0.000000
 
  0.2300000E+00  0.0000000E+00  0.0000000E+00  0.4901961E-02
    1      -16.792704   1.000000
    2      -16.791418   1.000000
    3      -15.385215   1.000000
    4      -15.381005   1.000000
    5      -11.157274   1.000000
    6      -11.150890   1.000000
    7       -9.102648   1.000000
    8       -9.099608   1.000000
    9       -7.090593   1.000000
   10       -7.086770   1.000000
   11       -6.838822   1.000000
   12       -6.806693   1.000000
   13       -6.184250   1.000000
   14       -6.141836   1.000000
   15       -5.338850   1.000000
   16       -5.313426   1.000000
   17       -4.359867   1.000000
   18       -4.319441   1.000000
   19       -3.608770   1.000000
   20       -3.603294   1.000000
   21       -1.062083   0.000000
   22       -1.025747   0.000000
   23       -0.933823   0.000000
   24       -0.898443   0.000000
   25        0.421436   0.000000
   26        0.473548   0.000000
   27        0.510923   0.000000
   28        0.531485   0.000000
   29        1.671007   0.000000
   30        1.687113   0.000000
   31        1.772908   0.000000
   32        1.910987   0.000000
   33        2.284077   0.000000
   34        2.284353   0.000000
   35        2.424214   0.000000
   36        2.431002   0.000000
   37        2.804224   0.000000
   38        2.818078   0.000000
   39        3.138845   0.000000
   40        3.139481   0.000000
   41        3.707452   0.000000
   42        3.707892   0.000000
   43        3.823853   0.000000
   44        3.824167   0.000000
   45        4.358555   0.000000
   46        4.359147   0.000000
   47        4.750259   0.000000
   48        4.774546   0.000000
   49        4.873101   0.000000
   50        4.874947   0.000000
   51        5.438455   0.000000
   52        5.439150   0.000000
   53        5.647770   0.000000
   54        5.649414   0.000000
   55        6.694420   0.000000
   56        6.698576   0.000000
   57        7.452542   0.000000
   58        7.453269   0.000000
   59        7.549933   0.000000
   60        7.553821   0.000000
   61        7.845958   0.000000
   62        7.848155   0.000000
   63        7.994713   0.000000
   64        7.998195   0.000000
   65        8.350470   0.000000
   66        8.354636   0.000000
   67        8.593630   0.000000
   68        8.594186   0.000000
   69        8.608278   0.000000
   70        8.609834   0.000000
   71        8.977737   0.000000
   72        8.980542   0.000000
   73        9.111161   0.000000
   74        9.111385   0.000000
   75        9.176238   0.000000
   76        9.181460   0.000000
   77        9.466457   0.000000
   78        9.474261   0.000000
   79        9.686374   0.000000
   80        9.686921   0.000000
   81        9.767852   0.000000
   82        9.768786   0.000000
   83        9.832861   0.000000
   84        9.842845   0.000000
   85        9.927506   0.000000
   86        9.935341   0.000000
   87        9.935455   0.000000
   88        9.939617   0.000000
   89       10.086571   0.000000
   90       10.094262   0.000000
   91       10.213407   0.000000
   92       10.217895   0.000000
   93       10.488127   0.000000
   94       10.489626   0.000000
   95       10.576004   0.000000
   96       10.576107   0.000000
   97       10.683329   0.000000
   98       10.687986   0.000000
   99       10.765159   0.000000
  100       10.782014   0.000000
  101       10.812916   0.000000
  102       10.813120   0.000000
  103       11.238107   0.000000
  104       11.240262   0.000000
  105       11.262233   0.000000
  106       11.264805   0.000000
  107       11.617238   0.000000
  108       11.628714   0.000000
  109       11.772077   0.000000
  110       11.786898   0.000000
  111       11.815197   0.000000
  112       11.815775   0.000000
  113       12.338580   0.000000
  114       12.345233   0.000000
  115       12.482139   0.000000
  116       12.501875   0.000000
  117       12.581870   0.000000
  118       12.584561   0.000000
  119       12.754817   0.000000
  120       12.755769   0.000000
  121       12.807122   0.000000
  122       12.813831   0.000000
  123       13.650209   0.000000
  124       13.653985   0.000000
  125       13.755009   0.000000
  126       13.755264   0.000000
  127       13.913415   0.000000
  128       13.916842   0.000000
  129       13.955175   0.000000
  130       13.959578   0.000000
  131       14.036343   0.000000
  132       14.037012   0.000000
  133       14.180472   0.000000
  134       14.184297   0.000000
  135       14.366365   0.000000
  136       14.370943   0.000000
  137       14.843737   0.000000
  138       14.848147   0.000000
  139       14.938435   0.000000
  140       14.943447   0.000000
  141       15.108417   0.000000
  142       15.142133   0.000000
  143       15.310884   0.000000
  144       15.374214   0.000000
 
  0.2400000E+00  0.0000000E+00  0.0000000E+00  0.4901961E-02
    1      -16.758959   1.000000
    2      -16.757653   1.000000
    3      -15.375292   1.000000
    4      -15.370999   1.000000
    5      -11.179132   1.000000
    6      -11.172636   1.000000
    7       -9.177367   1.000000
    8       -9.174279   1.000000
    9       -7.061622   1.000000
   10       -7.057432   1.000000
   11       -6.854128   1.000000
   12       -6.824373   1.000000
   13       -6.155523   1.000000
   14       -6.115647   1.000000
   15       -5.348198   1.000000
   16       -5.324414   1.000000
   17       -4.347176   1.000000
   18       -4.308616   1.000000
   19       -3.634793   1.000000
   20       -3.629100   1.000000
   21       -1.084781   0.000000
   22       -1.007142   0.000000
   23       -0.956009   0.000000
   24       -0.948217   0.000000
   25        0.364130   0.000000
   26        0.413964   0.000000
   27        0.452251   0.000000
   28        0.467156   0.000000
   29        1.691750   0.000000
   30        1.694095   0.000000
   31        1.735386   0.000000
   32        1.845868   0.000000
   33        2.332397   0.000000
   34        2.332566   0.000000
   35        2.460796   0.000000
   36        2.468019   0.000000
   37        2.816964   0.000000
   38        2.828495   0.000000
   39        3.188898   0.000000
   40        3.189515   0.000000
   41        3.781390   0.000000
   42        3.787686   0.000000
   43        3.863853   0.000000
   44        3.864174   0.000000
   45        4.402808   0.000000
   46        4.403528   0.000000
   47        4.820903   0.000000
   48        4.824155   0.000000
   49        4.866366   0.000000
   50        4.889921   0.000000
   51        5.476272   0.000000
   52        5.477172   0.000000
   53        5.697825   0.000000
   54        5.699496   0.000000
   55        6.738430   0.000000
   56        6.740909   0.000000
   57        7.491939   0.000000
   58        7.493753   0.000000
   59        7.507831   0.000000
   60        7.511548   0.000000
   61        7.825566   0.000000
   62        7.828089   0.000000
   63        7.880914   0.000000
   64        7.883663   0.000000
   65        8.319686   0.000000
   66        8.322876   0.000000
   67        8.445756   0.000000
   68        8.446441   0.000000
   69        8.530387   0.000000
   70        8.531812   0.000000
   71        8.967654   0.000000
   72        8.968848   0.000000
   73        8.986555   0.000000
   74        8.988130   0.000000
   75        9.212370   0.000000
   76        9.219581   0.000000
   77        9.526458   0.000000
   78        9.532515   0.000000
   79        9.676161   0.000000
   80        9.677894   0.000000
   81        9.817140   0.000000
   82        9.817684   0.000000
   83        9.863782   0.000000
   84        9.870655   0.000000
   85        9.905269   0.000000
   86        9.905840   0.000000
   87        9.938273   0.000000
   88        9.942254   0.000000
   89       10.117108   0.000000
   90       10.123404   0.000000
   91       10.223288   0.000000
   92       10.227088   0.000000
   93       10.503101   0.000000
   94       10.504832   0.000000
   95       10.634827   0.000000
   96       10.635266   0.000000
   97       10.691114   0.000000
   98       10.694694   0.000000
   99       10.823805   0.000000
  100       10.843309   0.000000
  101       10.855294   0.000000
  102       10.856297   0.000000
  103       11.236726   0.000000
  104       11.239153   0.000000
  105       11.340591   0.000000
  106       11.342569   0.000000
  107       11.647144   0.000000
  108       11.647533   0.000000
  109       11.745658   0.000000
  110       11.748460   0.000000
  111       11.811516   0.000000
  112       11.836437   0.000000
  113       12.320085   0.000000
  114       12.326182   0.000000
  115       12.480429   0.000000
  116       12.483990   0.000000
  117       12.549766   0.000000
  118       12.567279   0.000000
  119       12.806165   0.000000
  120       12.808066   0.000000
  121       12.821480   0.000000
  122       12.824248   0.000000
  123       13.724050   0.000000
  124       13.726847   0.000000
  125       13.727739   0.000000
  126       13.733336   0.000000
  127       13.891794   0.000000
  128       13.893334   0.000000
  129       13.955995   0.000000
  130       13.959908   0.000000
  131       13.964641   0.000000
  132       13.964923   0.000000
  133       14.196075   0.000000
  134       14.198816   0.000000
  135       14.370216   0.000000
  136       14.373922   0.000000
  137       14.879750   0.000000
  138       14.885513   0.000000
  139       14.925710   0.000000
  140       14.928619   0.000000
  141       15.015103   0.000000
  142       15.026119   0.000000
  143       15.178495   0.000000
  144       15.238931   0.000000
 
  0.2500000E+00  0.0000000E+00  0.0000000E+00  0.4901961E-02
    1      -16.724076   1.000000
    2      -16.722756   1.000000
    3      -15.366015   1.000000
    4      -15.361654   1.000000
    5      -11.200866   1.000000
    6      -11.194282   1.000000
    7       -9.253733   1.000000
    8       -9.250610   1.000000
    9       -7.032014   1.000000
   10       -7.027411   1.000000
   11       -6.867148   1.000000
   12       -6.839473   1.000000
   13       -6.125402   1.000000
   14       -6.087839   1.000000
   15       -5.355905   1.000000
   16       -5.333739   1.000000
   17       -4.335558   1.000000
   18       -4.298909   1.000000
   19       -3.662041   1.000000
   20       -3.656118   1.000000
   21       -1.138733   0.000000
   22       -1.059041   0.000000
   23       -0.938266   0.000000
   24       -0.926944   0.000000
   25        0.300851   0.000000
   26        0.351043   0.000000
   27        0.386887   0.000000
   28        0.400050   0.000000
   29        1.642234   0.000000
   30        1.714210   0.000000
   31        1.741492   0.000000
   32        1.772527   0.000000
   33        2.382546   0.000000
   34        2.382976   0.000000
   35        2.495485   0.000000
   36        2.503070   0.000000
   37        2.834245   0.000000
   38        2.843360   0.000000
   39        3.240708   0.000000
   40        3.241321   0.000000
   41        3.872318   0.000000
   42        3.883254   0.000000
   43        3.908089   0.000000
   44        3.908512   0.000000
   45        4.445295   0.000000
   46        4.446082   0.000000
   47        4.781861   0.000000
   48        4.783755   0.000000
   49        4.986608   0.000000
   50        5.011728   0.000000
   51        5.515080   0.000000
   52        5.516302   0.000000
   53        5.750100   0.000000
   54        5.751798   0.000000
   55        6.774705   0.000000
   56        6.775260   0.000000
   57        7.451753   0.000000
   58        7.457306   0.000000
   59        7.525002   0.000000
   60        7.526465   0.000000
   61        7.767297   0.000000
   62        7.769481   0.000000
   63        7.809338   0.000000
   64        7.812702   0.000000
   65        8.292681   0.000000
   66        8.293611   0.000000
   67        8.300993   0.000000
   68        8.303265   0.000000
   69        8.446402   0.000000
   70        8.447422   0.000000
   71        8.861538   0.000000
   72        8.864000   0.000000
   73        8.950344   0.000000
   74        8.950495   0.000000
   75        9.257558   0.000000
   76        9.265531   0.000000
   77        9.591200   0.000000
   78        9.596396   0.000000
   79        9.626760   0.000000
   80        9.628495   0.000000
   81        9.846016   0.000000
   82        9.850540   0.000000
   83        9.864431   0.000000
   84        9.864750   0.000000
   85        9.921313   0.000000
   86        9.922317   0.000000
   87        9.936475   0.000000
   88        9.936851   0.000000
   89       10.157486   0.000000
   90       10.162518   0.000000
   91       10.253858   0.000000
   92       10.263946   0.000000
   93       10.554797   0.000000
   94       10.559750   0.000000
   95       10.690076   0.000000
   96       10.691286   0.000000
   97       10.708080   0.000000
   98       10.711124   0.000000
   99       10.884613   0.000000
  100       10.887482   0.000000
  101       10.891136   0.000000
  102       10.906836   0.000000
  103       11.213671   0.000000
  104       11.215971   0.000000
  105       11.424505   0.000000
  106       11.427013   0.000000
  107       11.667762   0.000000
  108       11.671402   0.000000
  109       11.674836   0.000000
  110       11.676794   0.000000
  111       11.886840   0.000000
  112       11.913794   0.000000
  113       12.319394   0.000000
  114       12.324482   0.000000
  115       12.374026   0.000000
  116       12.376748   0.000000
  117       12.602354   0.000000
  118       12.617756   0.000000
  119       12.829324   0.000000
  120       12.834075   0.000000
  121       12.868447   0.000000
  122       12.871001   0.000000
  123       13.666181   0.000000
  124       13.668342   0.000000
  125       13.788825   0.000000
  126       13.793497   0.000000
  127       13.810788   0.000000
  128       13.819117   0.000000
  129       13.941754   0.000000
  130       13.946199   0.000000
  131       13.967458   0.000000
  132       13.977379   0.000000
  133       14.262459   0.000000
  134       14.265097   0.000000
  135       14.388761   0.000000
  136       14.391538   0.000000
  137       14.855502   0.000000
  138       14.858060   0.000000
  139       14.913780   0.000000
  140       14.917038   0.000000
  141       14.974835   0.000000
  142       14.998082   0.000000
  143       15.040292   0.000000
  144       15.072470   0.000000
 
  0.2600000E+00  0.0000000E+00  0.0000000E+00  0.4901961E-02
    1      -16.688098   1.000000
    2      -16.686768   1.000000
    3      -15.357527   1.000000
    4      -15.353113   1.000000
    5      -11.222256   1.000000
    6      -11.215611   1.000000
    7       -9.331505   1.000000
    8       -9.328361   1.000000
    9       -7.001904   1.000000
   10       -6.996812   1.000000
   11       -6.877667   1.000000
   12       -6.851779   1.000000
   13       -6.094103   1.000000
   14       -6.058658   1.000000
   15       -5.362129   1.000000
   16       -5.341569   1.000000
   17       -4.325140   1.000000
   18       -4.290457   1.000000
   19       -3.690460   1.000000
   20       -3.684293   1.000000
   21       -1.199318   0.000000
   22       -1.124979   0.000000
   23       -0.901538   0.000000
   24       -0.894491   0.000000
   25        0.233487   0.000000
   26        0.285606   0.000000
   27        0.317249   0.000000
   28        0.330758   0.000000
   29        1.573123   0.000000
   30        1.689578   0.000000
   31        1.733283   0.000000
   32        1.756491   0.000000
   33        2.434681   0.000000
   34        2.435288   0.000000
   35        2.527798   0.000000
   36        2.535533   0.000000
   37        2.857444   0.000000
   38        2.864253   0.000000
   39        3.294199   0.000000
   40        3.294823   0.000000
   41        3.946453   0.000000
   42        3.947759   0.000000
   43        3.985367   0.000000
   44        3.999788   0.000000
   45        4.483396   0.000000
   46        4.483956   0.000000
   47        4.757197   0.000000
   48        4.758377   0.000000
   49        5.112531   0.000000
   50        5.137954   0.000000
   51        5.555024   0.000000
   52        5.556792   0.000000
   53        5.804584   0.000000
   54        5.806310   0.000000
   55        6.798713   0.000000
   56        6.800327   0.000000
   57        7.393977   0.000000
   58        7.400447   0.000000
   59        7.517723   0.000000
   60        7.520809   0.000000
   61        7.688973   0.000000
   62        7.689203   0.000000
   63        7.788773   0.000000
   64        7.792284   0.000000
   65        8.139002   0.000000
   66        8.139760   0.000000
   67        8.293697   0.000000
   68        8.294447   0.000000
   69        8.362922   0.000000
   70        8.363162   0.000000
   71        8.741862   0.000000
   72        8.745160   0.000000
   73        8.917654   0.000000
   74        8.918608   0.000000
   75        9.303765   0.000000
   76        9.311933   0.000000
   77        9.570079   0.000000
   78        9.572104   0.000000
   79        9.653218   0.000000
   80        9.656613   0.000000
   81        9.757684   0.000000
   82        9.759770   0.000000
   83        9.911117   0.000000
   84        9.911339   0.000000
   85        9.965999   0.000000
   86        9.967189   0.000000
   87        9.970627   0.000000
   88        9.971649   0.000000
   89       10.200176   0.000000
   90       10.204707   0.000000
   91       10.312475   0.000000
   92       10.324525   0.000000
   93       10.622762   0.000000
   94       10.630012   0.000000
   95       10.724372   0.000000
   96       10.728355   0.000000
   97       10.730150   0.000000
   98       10.731264   0.000000
   99       10.909415   0.000000
  100       10.913645   0.000000
  101       10.948317   0.000000
  102       10.968968   0.000000
  103       11.194632   0.000000
  104       11.196732   0.000000
  105       11.507563   0.000000
  106       11.514360   0.000000
  107       11.600963   0.000000
  108       11.617161   0.000000
  109       11.703224   0.000000
  110       11.710810   0.000000
  111       11.972220   0.000000
  112       11.997710   0.000000
  113       12.262500   0.000000
  114       12.265185   0.000000
  115       12.327867   0.000000
  116       12.332488   0.000000
  117       12.644644   0.000000
  118       12.656769   0.000000
  119       12.847965   0.000000
  120       12.849366   0.000000
  121       12.927835   0.000000
  122       12.930405   0.000000
  123       13.592058   0.000000
  124       13.593357   0.000000
  125       13.711291   0.000000
  126       13.713691   0.000000
  127       13.832160   0.000000
  128       13.850275   0.000000
  129       13.959981   0.000000
  130       13.960294   0.000000
  131       13.986307   0.000000
  132       13.995915   0.000000
  133       14.362311   0.000000
  134       14.365368   0.000000
  135       14.406790   0.000000
  136       14.408752   0.000000
  137       14.746214   0.000000
  138       14.752708   0.000000
  139       14.860445   0.000000
  140       14.866666   0.000000
  141       14.894901   0.000000
  142       14.924552   0.000000
  143       15.047939   0.000000
  144       15.367584   0.000000
 
  0.2700000E+00  0.0000000E+00  0.0000000E+00  0.4901961E-02
    1      -16.651068   1.000000
    2      -16.649734   1.000000
    3      -15.349968   1.000000
    4      -15.345520   1.000000
    5      -11.243063   1.000000
    6      -11.236384   1.000000
    7       -9.410435   1.000000
    8       -9.407286   1.000000
    9       -6.971486   1.000000
   10       -6.965776   1.000000
   11       -6.885511   1.000000
   12       -6.861092   1.000000
   13       -6.061816   1.000000
   14       -6.028324   1.000000
   15       -5.367044   1.000000
   16       -5.348087   1.000000
   17       -4.316028   1.000000
   18       -4.283378   1.000000
   19       -3.719981   1.000000
   20       -3.713554   1.000000
   21       -1.258770   0.000000
   22       -1.188108   0.000000
   23       -0.862673   0.000000
   24       -0.858634   0.000000
   25        0.163598   0.000000
   26        0.218635   0.000000
   27        0.245319   0.000000
   28        0.260046   0.000000
   29        1.496095   0.000000
   30        1.603533   0.000000
   31        1.745343   0.000000
   32        1.768837   0.000000
   33        2.488693   0.000000
   34        2.489469   0.000000
   35        2.557798   0.000000
   36        2.565313   0.000000
   37        2.887537   0.000000
   38        2.892340   0.000000
   39        3.349290   0.000000
   40        3.349942   0.000000
   41        3.995002   0.000000
   42        3.995418   0.000000
   43        4.098393   0.000000
   44        4.116306   0.000000
   45        4.514567   0.000000
   46        4.515321   0.000000
   47        4.753922   0.000000
   48        4.754395   0.000000
   49        5.240612   0.000000
   50        5.265552   0.000000
   51        5.596819   0.000000
   52        5.599618   0.000000
   53        5.861279   0.000000
   54        5.863035   0.000000
   55        6.807973   0.000000
   56        6.811867   0.000000
   57        7.340437   0.000000
   58        7.347985   0.000000
   59        7.429517   0.000000
   60        7.432822   0.000000
   61        7.687632   0.000000
   62        7.687803   0.000000
   63        7.759290   0.000000
   64        7.762868   0.000000
   65        7.987017   0.000000
   66        7.987690   0.000000
   67        8.270067   0.000000
   68        8.270714   0.000000
   69        8.306750   0.000000
   70        8.307409   0.000000
   71        8.634975   0.000000
   72        8.638730   0.000000
   73        8.863727   0.000000
   74        8.865229   0.000000
   75        9.344012   0.000000
   76        9.351527   0.000000
   77        9.537908   0.000000
   78        9.538639   0.000000
   79        9.607696   0.000000
   80        9.609009   0.000000
   81        9.750611   0.000000
   82        9.753630   0.000000
   83        9.958896   0.000000
   84        9.959160   0.000000
   85       10.014159   0.000000
   86       10.015422   0.000000
   87       10.021467   0.000000
   88       10.023115   0.000000
   89       10.243301   0.000000
   90       10.247502   0.000000
   91       10.381878   0.000000
   92       10.393846   0.000000
   93       10.686601   0.000000
   94       10.693430   0.000000
   95       10.727369   0.000000
   96       10.729374   0.000000
   97       10.750591   0.000000
   98       10.751706   0.000000
   99       10.937457   0.000000
  100       10.943059   0.000000
  101       11.007386   0.000000
  102       11.025937   0.000000
  103       11.199612   0.000000
  104       11.201448   0.000000
  105       11.532465   0.000000
  106       11.534044   0.000000
  107       11.625847   0.000000
  108       11.640257   0.000000
  109       11.736442   0.000000
  110       11.745032   0.000000
  111       12.050572   0.000000
  112       12.073244   0.000000
  113       12.159755   0.000000
  114       12.161813   0.000000
  115       12.339241   0.000000
  116       12.342683   0.000000
  117       12.675723   0.000000
  118       12.684633   0.000000
  119       12.864740   0.000000
  120       12.866348   0.000000
  121       12.989535   0.000000
  122       12.992207   0.000000
  123       13.514953   0.000000
  124       13.515012   0.000000
  125       13.627398   0.000000
  126       13.632695   0.000000
  127       13.847826   0.000000
  128       13.867920   0.000000
  129       13.993710   0.000000
  130       14.002506   0.000000
  131       14.012101   0.000000
  132       14.013337   0.000000
  133       14.398489   0.000000
  134       14.398708   0.000000
  135       14.481236   0.000000
  136       14.486094   0.000000
  137       14.655652   0.000000
  138       14.659346   0.000000
  139       14.709939   0.000000
  140       14.712085   0.000000
  141       14.876439   0.000000
  142       14.889339   0.000000
  143       15.150728   0.000000
  144       15.246762   0.000000
 
  0.2800000E+00  0.0000000E+00  0.0000000E+00  0.4901961E-02
    1      -16.613036   1.000000
    2      -16.611705   1.000000
    3      -15.343483   1.000000
    4      -15.339018   1.000000
    5      -11.263038   1.000000
    6      -11.256354   1.000000
    7       -9.490283   1.000000
    8       -9.487142   1.000000
    9       -6.941114   1.000000
   10       -6.934537   1.000000
   11       -6.890476   1.000000
   12       -6.867114   1.000000
   13       -6.028717   1.000000
   14       -5.997042   1.000000
   15       -5.370839   1.000000
   16       -5.353493   1.000000
   17       -4.308318   1.000000
   18       -4.277773   1.000000
   19       -3.750519   1.000000
   20       -3.743815   1.000000
   21       -1.314847   0.000000
   22       -1.246828   0.000000
   23       -0.823479   0.000000
   24       -0.821854   0.000000
   25        0.092562   0.000000
   26        0.151176   0.000000
   27        0.172803   0.000000
   28        0.188777   0.000000
   29        1.413462   0.000000
   30        1.512475   0.000000
   31        1.752732   0.000000
   32        1.776442   0.000000
   33        2.544387   0.000000
   34        2.545463   0.000000
   35        2.586336   0.000000
   36        2.593086   0.000000
   37        2.924837   0.000000
   38        2.928055   0.000000
   39        3.405879   0.000000
   40        3.406579   0.000000
   41        4.044316   0.000000
   42        4.044624   0.000000
   43        4.209422   0.000000
   44        4.226558   0.000000
   45        4.542937   0.000000
   46        4.548005   0.000000
   47        4.775674   0.000000
   48        4.775746   0.000000
   49        5.366117   0.000000
   50        5.389136   0.000000
   51        5.642809   0.000000
   52        5.647793   0.000000
   53        5.920215   0.000000
   54        5.922001   0.000000
   55        6.800710   0.000000
   56        6.806678   0.000000
   57        7.294608   0.000000
   58        7.302463   0.000000
   59        7.305595   0.000000
   60        7.308844   0.000000
   61        7.710741   0.000000
   62        7.711465   0.000000
   63        7.721763   0.000000
   64        7.725305   0.000000
   65        7.847077   0.000000
   66        7.847418   0.000000
   67        8.186676   0.000000
   68        8.186977   0.000000
   69        8.315799   0.000000
   70        8.316718   0.000000
   71        8.551426   0.000000
   72        8.555030   0.000000
   73        8.786423   0.000000
   74        8.788188   0.000000
   75        9.371343   0.000000
   76        9.376887   0.000000
   77        9.480256   0.000000
   78        9.480900   0.000000
   79        9.541761   0.000000
   80        9.542992   0.000000
   81        9.816028   0.000000
   82        9.818918   0.000000
   83       10.006760   0.000000
   84       10.007087   0.000000
   85       10.061353   0.000000
   86       10.063366   0.000000
   87       10.081596   0.000000
   88       10.083094   0.000000
   89       10.286215   0.000000
   90       10.289974   0.000000
   91       10.450199   0.000000
   92       10.461160   0.000000
   93       10.680708   0.000000
   94       10.682299   0.000000
   95       10.713309   0.000000
   96       10.715770   0.000000
   97       10.806686   0.000000
   98       10.811847   0.000000
   99       10.985363   0.000000
  100       10.990793   0.000000
  101       11.060146   0.000000
  102       11.074604   0.000000
  103       11.227761   0.000000
  104       11.229185   0.000000
  105       11.507597   0.000000
  106       11.521732   0.000000
  107       11.726327   0.000000
  108       11.735694   0.000000
  109       11.759893   0.000000
  110       11.769650   0.000000
  111       12.020106   0.000000
  112       12.028279   0.000000
  113       12.168103   0.000000
  114       12.181132   0.000000
  115       12.349126   0.000000
  116       12.351369   0.000000
  117       12.694890   0.000000
  118       12.701511   0.000000
  119       12.878255   0.000000
  120       12.881377   0.000000
  121       13.052760   0.000000
  122       13.055481   0.000000
  123       13.441845   0.000000
  124       13.443467   0.000000
  125       13.565270   0.000000
  126       13.574260   0.000000
  127       13.855413   0.000000
  128       13.875427   0.000000
  129       14.007706   0.000000
  130       14.021520   0.000000
  131       14.053778   0.000000
  132       14.058860   0.000000
  133       14.338062   0.000000
  134       14.339667   0.000000
  135       14.561904   0.000000
  136       14.563568   0.000000
  137       14.605956   0.000000
  138       14.613731   0.000000
  139       14.624061   0.000000
  140       14.641983   0.000000
  141       14.822973   0.000000
  142       14.889049   0.000000
  143       15.101600   0.000000
  144       15.122051   0.000000
 
  0.2900000E+00  0.0000000E+00  0.0000000E+00  0.4901961E-02
    1      -16.574060   1.000000
    2      -16.572737   1.000000
    3      -15.338220   1.000000
    4      -15.333757   1.000000
    5      -11.281923   1.000000
    6      -11.275262   1.000000
    7       -9.570812   1.000000
    8       -9.567694   1.000000
    9       -6.911838   1.000000
   10       -6.904616   1.000000
   11       -6.891136   1.000000
   12       -6.868916   1.000000
   13       -5.994977   1.000000
   14       -5.965008   1.000000
   15       -5.373715   1.000000
   16       -5.357994   1.000000
   17       -4.302085   1.000000
   18       -4.273725   1.000000
   19       -3.781979   1.000000
   20       -3.774976   1.000000
   21       -1.366610   0.000000
   22       -1.300603   0.000000
   23       -0.785645   0.000000
   24       -0.785018   0.000000
   25        0.021730   0.000000
   26        0.084330   0.000000
   27        0.101428   0.000000
   28        0.117770   0.000000
   29        1.326646   0.000000
   30        1.418127   0.000000
   31        1.754059   0.000000
   32        1.778131   0.000000
   33        2.600584   0.000000
   34        2.603121   0.000000
   35        2.615819   0.000000
   36        2.620291   0.000000
   37        2.969011   0.000000
   38        2.971078   0.000000
   39        3.463824   0.000000
   40        3.464593   0.000000
   41        4.095503   0.000000
   42        4.095796   0.000000
   43        4.296034   0.000000
   44        4.306891   0.000000
   45        4.590488   0.000000
   46        4.604601   0.000000
   47        4.819801   0.000000
   48        4.820515   0.000000
   49        5.479624   0.000000
   50        5.497931   0.000000
   51        5.699637   0.000000
   52        5.709276   0.000000
   53        5.981438   0.000000
   54        5.983256   0.000000
   55        6.777564   0.000000
   56        6.785063   0.000000
   57        7.172716   0.000000
   58        7.175029   0.000000
   59        7.255772   0.000000
   60        7.263996   0.000000
   61        7.649524   0.000000
   62        7.650733   0.000000
   63        7.681944   0.000000
   64        7.684407   0.000000
   65        7.802253   0.000000
   66        7.802344   0.000000
   67        8.090456   0.000000
   68        8.090916   0.000000
   69        8.330791   0.000000
   70        8.332773   0.000000
   71        8.502301   0.000000
   72        8.505074   0.000000
   73        8.689649   0.000000
   74        8.691446   0.000000
   75        9.345811   0.000000
   76        9.346130   0.000000
   77        9.387186   0.000000
   78        9.390315   0.000000
   79        9.576004   0.000000
   80        9.579514   0.000000
   81        9.883206   0.000000
   82        9.885976   0.000000
   83       10.052491   0.000000
   84       10.052877   0.000000
   85       10.110317   0.000000
   86       10.113007   0.000000
   87       10.144563   0.000000
   88       10.145945   0.000000
   89       10.328735   0.000000
   90       10.331816   0.000000
   91       10.503926   0.000000
   92       10.512886   0.000000
   93       10.613721   0.000000
   94       10.613741   0.000000
   95       10.720452   0.000000
   96       10.720526   0.000000
   97       10.882646   0.000000
   98       10.890159   0.000000
   99       11.044548   0.000000
  100       11.049420   0.000000
  101       11.105760   0.000000
  102       11.115619   0.000000
  103       11.269305   0.000000
  104       11.270211   0.000000
  105       11.509999   0.000000
  106       11.532330   0.000000
  107       11.756941   0.000000
  108       11.765289   0.000000
  109       11.835520   0.000000
  110       11.845894   0.000000
  111       11.936207   0.000000
  112       11.941766   0.000000
  113       12.243578   0.000000
  114       12.255555   0.000000
  115       12.354433   0.000000
  116       12.355422   0.000000
  117       12.699896   0.000000
  118       12.705123   0.000000
  119       12.890509   0.000000
  120       12.893532   0.000000
  121       13.116530   0.000000
  122       13.119018   0.000000
  123       13.380491   0.000000
  124       13.383654   0.000000
  125       13.531996   0.000000
  126       13.545675   0.000000
  127       13.862103   0.000000
  128       13.881169   0.000000
  129       13.995721   0.000000
  130       14.007000   0.000000
  131       14.104594   0.000000
  132       14.109425   0.000000
  133       14.249633   0.000000
  134       14.250486   0.000000
  135       14.419640   0.000000
  136       14.421248   0.000000
  137       14.626724   0.000000
  138       14.633829   0.000000
  139       14.724489   0.000000
  140       14.728985   0.000000
  141       14.755257   0.000000
  142       14.783050   0.000000
  143       14.943255   0.000000
  144       14.965703   0.000000
 
  0.3000000E+00  0.0000000E+00  0.0000000E+00  0.4901961E-02
    1      -16.534191   1.000000
    2      -16.532884   1.000000
    3      -15.334332   1.000000
    4      -15.329890   1.000000
    5      -11.299454   1.000000
    6      -11.292847   1.000000
    7       -9.651782   1.000000
    8       -9.648702   1.000000
    9       -6.894500   1.000000
   10       -6.888605   1.000000
   11       -6.869158   1.000000
   12       -6.861725   1.000000
   13       -5.960763   1.000000
   14       -5.932414   1.000000
   15       -5.375872   1.000000
   16       -5.361799   1.000000
   17       -4.297364   1.000000
   18       -4.271271   1.000000
   19       -3.814248   1.000000
   20       -3.806923   1.000000
   21       -1.413554   0.000000
   22       -1.349135   0.000000
   23       -0.751551   0.000000
   24       -0.748597   0.000000
   25       -0.047453   0.000000
   26        0.019338   0.000000
   27        0.033165   0.000000
   28        0.047798   0.000000
   29        1.236776   0.000000
   30        1.321526   0.000000
   31        1.748613   0.000000
   32        1.773084   0.000000
   33        2.641229   0.000000
   34        2.647890   0.000000
   35        2.663046   0.000000
   36        2.663733   0.000000
   37        3.019343   0.000000
   38        3.020624   0.000000
   39        3.522931   0.000000
   40        3.523794   0.000000
   41        4.148578   0.000000
   42        4.148876   0.000000
   43        4.339446   0.000000
   44        4.343012   0.000000
   45        4.677132   0.000000
   46        4.699502   0.000000
   47        4.883517   0.000000
   48        4.886162   0.000000
   49        5.565789   0.000000
   50        5.577054   0.000000
   51        5.779301   0.000000
   52        5.795536   0.000000
   53        6.045035   0.000000
   54        6.046885   0.000000
   55        6.742840   0.000000
   56        6.751282   0.000000
   57        7.038215   0.000000
   58        7.040126   0.000000
   59        7.216495   0.000000
   60        7.223539   0.000000
   61        7.510203   0.000000
   62        7.511152   0.000000
   63        7.648438   0.000000
   64        7.649200   0.000000
   65        7.840494   0.000000
   66        7.840737   0.000000
   67        7.983819   0.000000
   68        7.984146   0.000000
   69        8.343071   0.000000
   70        8.345481   0.000000
   71        8.492134   0.000000
   72        8.494054   0.000000
   73        8.579977   0.000000
   74        8.581669   0.000000
   75        9.211293   0.000000
   76        9.211426   0.000000
   77        9.397550   0.000000
   78        9.399151   0.000000
   79        9.627601   0.000000
   80        9.632535   0.000000
   81        9.945576   0.000000
   82        9.948235   0.000000
   83       10.092649   0.000000
   84       10.093027   0.000000
   85       10.159230   0.000000
   86       10.162614   0.000000
   87       10.209419   0.000000
   88       10.210646   0.000000
   89       10.370847   0.000000
   90       10.372819   0.000000
   91       10.523519   0.000000
   92       10.529508   0.000000
   93       10.544469   0.000000
   94       10.546454   0.000000
   95       10.744657   0.000000
   96       10.746965   0.000000
   97       10.962298   0.000000
   98       10.970553   0.000000
   99       11.106830   0.000000
  100       11.111013   0.000000
  101       11.147129   0.000000
  102       11.153477   0.000000
  103       11.316379   0.000000
  104       11.316665   0.000000
  105       11.536418   0.000000
  106       11.564560   0.000000
  107       11.704645   0.000000
  108       11.709846   0.000000
  109       11.896132   0.000000
  110       11.896733   0.000000
  111       11.950198   0.000000
  112       11.959444   0.000000
  113       12.310571   0.000000
  114       12.320650   0.000000
  115       12.353378   0.000000
  116       12.353536   0.000000
  117       12.690848   0.000000
  118       12.694725   0.000000
  119       12.906835   0.000000
  120       12.909293   0.000000
  121       13.178487   0.000000
  122       13.179688   0.000000
  123       13.337400   0.000000
  124       13.341276   0.000000
  125       13.528433   0.000000
  126       13.547371   0.000000
  127       13.868900   0.000000
  128       13.885966   0.000000
  129       13.942852   0.000000
  130       13.949982   0.000000
  131       14.150897   0.000000
  132       14.153150   0.000000
  133       14.165766   0.000000
  134       14.166814   0.000000
  135       14.299114   0.000000
  136       14.301742   0.000000
  137       14.624628   0.000000
  138       14.630533   0.000000
  139       14.654413   0.000000
  140       14.681465   0.000000
  141       14.791272   0.000000
  142       14.802874   0.000000
  143       14.814228   0.000000
  144       14.825824   0.000000
 
  0.3100000E+00  0.0000000E+00  0.0000000E+00  0.4901961E-02
    1      -16.493494   1.000000
    2      -16.492210   1.000000
    3      -15.331959   1.000000
    4      -15.327559   1.000000
    5      -11.315366   1.000000
    6      -11.308843   1.000000
    7       -9.732965   1.000000
    8       -9.729939   1.000000
    9       -6.890962   1.000000
   10       -6.878383   1.000000
   11       -6.838788   1.000000
   12       -6.837965   1.000000
   13       -5.926242   1.000000
   14       -5.899451   1.000000
   15       -5.377517   1.000000
   16       -5.365116   1.000000
   17       -4.294161   1.000000
   18       -4.270421   1.000000
   19       -3.847197   1.000000
   20       -3.839525   1.000000
   21       -1.455381   0.000000
   22       -1.392249   0.000000
   23       -0.721622   0.000000
   24       -0.716167   0.000000
   25       -0.113383   0.000000
   26       -0.042198   0.000000
   27       -0.029719   0.000000
   28       -0.020210   0.000000
   29        1.144793   0.000000
   30        1.223504   0.000000
   31        1.736002   0.000000
   32        1.760819   0.000000
   33        2.673643   0.000000
   34        2.678530   0.000000
   35        2.723979   0.000000
   36        2.724005   0.000000
   37        3.075012   0.000000
   38        3.075775   0.000000
   39        3.582928   0.000000
   40        3.583916   0.000000
   41        4.203400   0.000000
   42        4.203711   0.000000
   43        4.350889   0.000000
   44        4.351029   0.000000
   45        4.786716   0.000000
   46        4.809465   0.000000
   47        4.969813   0.000000
   48        4.978265   0.000000
   49        5.618172   0.000000
   50        5.624518   0.000000
   51        5.883986   0.000000
   52        5.904173   0.000000
   53        6.111134   0.000000
   54        6.113014   0.000000
   55        6.702992   0.000000
   56        6.712045   0.000000
   57        6.903980   0.000000
   58        6.905524   0.000000
   59        7.170262   0.000000
   60        7.175371   0.000000
   61        7.364135   0.000000
   62        7.364972   0.000000
   63        7.625056   0.000000
   64        7.626492   0.000000
   65        7.872073   0.000000
   66        7.872814   0.000000
   67        7.887845   0.000000
   68        7.888722   0.000000
   69        8.352548   0.000000
   70        8.354541   0.000000
   71        8.463611   0.000000
   72        8.465011   0.000000
   73        8.513221   0.000000
   74        8.515021   0.000000
   75        9.079709   0.000000
   76        9.079964   0.000000
   77        9.403624   0.000000
   78        9.404117   0.000000
   79        9.687398   0.000000
   80        9.693217   0.000000
   81        9.997320   0.000000
   82        9.999635   0.000000
   83       10.122165   0.000000
   84       10.122320   0.000000
   85       10.205653   0.000000
   86       10.209670   0.000000
   87       10.274959   0.000000
   88       10.275910   0.000000
   89       10.411278   0.000000
   90       10.411365   0.000000
   91       10.490462   0.000000
   92       10.494413   0.000000
   93       10.513541   0.000000
   94       10.516456   0.000000
   95       10.798700   0.000000
   96       10.802498   0.000000
   97       11.041741   0.000000
   98       11.050104   0.000000
   99       11.167146   0.000000
  100       11.170291   0.000000
  101       11.188193   0.000000
  102       11.192516   0.000000
  103       11.360594   0.000000
  104       11.361081   0.000000
  105       11.574654   0.000000
  106       11.607041   0.000000
  107       11.621866   0.000000
  108       11.623437   0.000000
  109       11.888732   0.000000
  110       11.890823   0.000000
  111       12.066680   0.000000
  112       12.075562   0.000000
  113       12.345430   0.000000
  114       12.346174   0.000000
  115       12.351166   0.000000
  116       12.359945   0.000000
  117       12.682070   0.000000
  118       12.684330   0.000000
  119       12.931206   0.000000
  120       12.933555   0.000000
  121       13.226425   0.000000
  122       13.230417   0.000000
  123       13.324858   0.000000
  124       13.325649   0.000000
  125       13.547830   0.000000
  126       13.572230   0.000000
  127       13.846941   0.000000
  128       13.849410   0.000000
  129       13.878293   0.000000
  130       13.890211   0.000000
  131       14.061641   0.000000
  132       14.063151   0.000000
  133       14.187386   0.000000
  134       14.189815   0.000000
  135       14.230659   0.000000
  136       14.235313   0.000000
  137       14.549403   0.000000
  138       14.559284   0.000000
  139       14.567260   0.000000
  140       14.575164   0.000000
  141       14.658573   0.000000
  142       14.693654   0.000000
  143       14.757087   0.000000
  144       14.812224   0.000000
 
  0.3200000E+00  0.0000000E+00  0.0000000E+00  0.4901961E-02
    1      -16.452036   1.000000
    2      -16.450782   1.000000
    3      -15.331242   1.000000
    4      -15.326903   1.000000
    5      -11.329393   1.000000
    6      -11.322983   1.000000
    7       -9.814137   1.000000
    8       -9.811181   1.000000
    9       -6.885228   1.000000
   10       -6.871812   1.000000
   11       -6.809727   1.000000
   12       -6.806580   1.000000
   13       -5.891587   1.000000
   14       -5.866308   1.000000
   15       -5.378845   1.000000
   16       -5.368145   1.000000
   17       -4.292443   1.000000
   18       -4.271139   1.000000
   19       -3.880680   1.000000
   20       -3.872631   1.000000
   21       -1.491915   0.000000
   22       -1.429851   0.000000
   23       -0.698722   0.000000
   24       -0.690691   0.000000
   25       -0.174444   0.000000
   26       -0.097781   0.000000
   27       -0.088852   0.000000
   28       -0.080697   0.000000
   29        1.051475   0.000000
   30        1.124740   0.000000
   31        1.716150   0.000000
   32        1.741203   0.000000
   33        2.708924   0.000000
   34        2.712552   0.000000
   35        2.786355   0.000000
   36        2.786561   0.000000
   37        3.135274   0.000000
   38        3.135704   0.000000
   39        3.643444   0.000000
   40        3.644592   0.000000
   41        4.259748   0.000000
   42        4.260085   0.000000
   43        4.348572   0.000000
   44        4.350165   0.000000
   45        4.890797   0.000000
   46        4.907578   0.000000
   47        5.086045   0.000000
   48        5.104049   0.000000
   49        5.645873   0.000000
   50        5.650128   0.000000
   51        5.998996   0.000000
   52        6.019549   0.000000
   53        6.179930   0.000000
   54        6.181834   0.000000
   55        6.664886   0.000000
   56        6.674623   0.000000
   57        6.771275   0.000000
   58        6.772482   0.000000
   59        7.115358   0.000000
   60        7.118324   0.000000
   61        7.218798   0.000000
   62        7.219543   0.000000
   63        7.603141   0.000000
   64        7.607395   0.000000
   65        7.771491   0.000000
   66        7.772959   0.000000
   67        7.933645   0.000000
   68        7.934739   0.000000
   69        8.347300   0.000000
   70        8.348116   0.000000
   71        8.363077   0.000000
   72        8.364662   0.000000
   73        8.551743   0.000000
   74        8.553663   0.000000
   75        8.954823   0.000000
   76        8.955681   0.000000
   77        9.401374   0.000000
   78        9.401699   0.000000
   79        9.751369   0.000000
   80        9.757808   0.000000
   81       10.028037   0.000000
   82       10.029274   0.000000
   83       10.135612   0.000000
   84       10.136085   0.000000
   85       10.248118   0.000000
   86       10.252256   0.000000
   87       10.337431   0.000000
   88       10.337826   0.000000
   89       10.436032   0.000000
   90       10.436721   0.000000
   91       10.481944   0.000000
   92       10.487433   0.000000
   93       10.502265   0.000000
   94       10.504258   0.000000
   95       10.869001   0.000000
   96       10.873085   0.000000
   97       11.118719   0.000000
   98       11.126915   0.000000
   99       11.217436   0.000000
  100       11.218343   0.000000
  101       11.231413   0.000000
  102       11.234678   0.000000
  103       11.383332   0.000000
  104       11.384764   0.000000
  105       11.552410   0.000000
  106       11.555245   0.000000
  107       11.621681   0.000000
  108       11.652255   0.000000
  109       11.892090   0.000000
  110       11.895561   0.000000
  111       12.184033   0.000000
  112       12.189810   0.000000
  113       12.337221   0.000000
  114       12.338796   0.000000
  115       12.344180   0.000000
  116       12.352283   0.000000
  117       12.699376   0.000000
  118       12.700773   0.000000
  119       12.962324   0.000000
  120       12.964990   0.000000
  121       13.243199   0.000000
  122       13.254924   0.000000
  123       13.351970   0.000000
  124       13.356950   0.000000
  125       13.578105   0.000000
  126       13.608138   0.000000
  127       13.731899   0.000000
  128       13.734441   0.000000
  129       13.883828   0.000000
  130       13.891036   0.000000
  131       13.934558   0.000000
  132       13.935202   0.000000
  133       14.192085   0.000000
  134       14.198098   0.000000
  135       14.207125   0.000000
  136       14.209863   0.000000
  137       14.428541   0.000000
  138       14.443293   0.000000
  139       14.460397   0.000000
  140       14.479276   0.000000
  141       14.501710   0.000000
  142       14.524669   0.000000
  143       14.668945   0.000000
  144       14.719301   0.000000
 
  0.3300000E+00  0.0000000E+00  0.0000000E+00  0.4901961E-02
    1      -16.409886   1.000000
    2      -16.408669   1.000000
    3      -15.332318   1.000000
    4      -15.328061   1.000000
    5      -11.341277   1.000000
    6      -11.335010   1.000000
    7       -9.895081   1.000000
    8       -9.892210   1.000000
    9       -6.877055   1.000000
   10       -6.863981   1.000000
   11       -6.779763   1.000000
   12       -6.775544   1.000000
   13       -5.856974   1.000000
   14       -5.833183   1.000000
   15       -5.380047   1.000000
   16       -5.371073   1.000000
   17       -4.292132   1.000000
   18       -4.273341   1.000000
   19       -3.914537   1.000000
   20       -3.906080   1.000000
   21       -1.523079   0.000000
   22       -1.461931   0.000000
   23       -0.686536   0.000000
   24       -0.676281   0.000000
   25       -0.229767   0.000000
   26       -0.151223   0.000000
   27       -0.143136   0.000000
   28       -0.122019   0.000000
   29        0.957471   0.000000
   30        1.025795   0.000000
   31        1.689271   0.000000
   32        1.714425   0.000000
   33        2.748063   0.000000
   34        2.750649   0.000000
   35        2.850205   0.000000
   36        2.850533   0.000000
   37        3.199522   0.000000
   38        3.199740   0.000000
   39        3.703976   0.000000
   40        3.705324   0.000000
   41        4.317199   0.000000
   42        4.317718   0.000000
   43        4.344902   0.000000
   44        4.347156   0.000000
   45        4.980822   0.000000
   46        4.992207   0.000000
   47        5.228813   0.000000
   48        5.254554   0.000000
   49        5.656358   0.000000
   50        5.659866   0.000000
   51        6.108941   0.000000
   52        6.127359   0.000000
   53        6.251714   0.000000
   54        6.253626   0.000000
   55        6.635446   0.000000
   56        6.641005   0.000000
   57        6.642218   0.000000
   58        6.646719   0.000000
   59        7.055994   0.000000
   60        7.056929   0.000000
   61        7.075782   0.000000
   62        7.076414   0.000000
   63        7.545634   0.000000
   64        7.551527   0.000000
   65        7.721315   0.000000
   66        7.722984   0.000000
   67        7.967459   0.000000
   68        7.969190   0.000000
   69        8.242524   0.000000
   70        8.243012   0.000000
   71        8.373201   0.000000
   72        8.374167   0.000000
   73        8.597348   0.000000
   74        8.599302   0.000000
   75        8.844478   0.000000
   76        8.846192   0.000000
   77        9.385967   0.000000
   78        9.386878   0.000000
   79        9.817459   0.000000
   80        9.824370   0.000000
   81       10.023776   0.000000
   82       10.024475   0.000000
   83       10.134808   0.000000
   84       10.136051   0.000000
   85       10.290575   0.000000
   86       10.293851   0.000000
   87       10.382945   0.000000
   88       10.383113   0.000000
   89       10.460149   0.000000
   90       10.462688   0.000000
   91       10.513408   0.000000
   92       10.515771   0.000000
   93       10.524000   0.000000
   94       10.527548   0.000000
   95       10.945592   0.000000
   96       10.949446   0.000000
   97       11.188610   0.000000
   98       11.197356   0.000000
   99       11.223672   0.000000
  100       11.227555   0.000000
  101       11.277866   0.000000
  102       11.280958   0.000000
  103       11.375923   0.000000
  104       11.379013   0.000000
  105       11.555313   0.000000
  106       11.555459   0.000000
  107       11.658390   0.000000
  108       11.689124   0.000000
  109       11.900819   0.000000
  110       11.904880   0.000000
  111       12.279702   0.000000
  112       12.286804   0.000000
  113       12.293328   0.000000
  114       12.300636   0.000000
  115       12.344423   0.000000
  116       12.358504   0.000000
  117       12.747872   0.000000
  118       12.749797   0.000000
  119       12.996948   0.000000
  120       13.000060   0.000000
  121       13.247878   0.000000
  122       13.263333   0.000000
  123       13.399960   0.000000
  124       13.407366   0.000000
  125       13.603899   0.000000
  126       13.615912   0.000000
  127       13.620894   0.000000
  128       13.640610   0.000000
  129       13.800774   0.000000
  130       13.801442   0.000000
  131       13.890223   0.000000
  132       13.891281   0.000000
  133       14.158776   0.000000
  134       14.165101   0.000000
  135       14.171351   0.000000
  136       14.174631   0.000000
  137       14.293232   0.000000
  138       14.294469   0.000000
  139       14.364781   0.000000
  140       14.370922   0.000000
  141       14.400628   0.000000
  142       14.459959   0.000000
  143       14.568836   0.000000
  144       14.638239   0.000000
 
  0.3400000E+00  0.0000000E+00  0.0000000E+00  0.4901961E-02
    1      -16.367117   1.000000
    2      -16.365946   1.000000
    3      -15.335308   1.000000
    4      -15.331152   1.000000
    5      -11.350768   1.000000
    6      -11.344673   1.000000
    7       -9.975584   1.000000
    8       -9.972814   1.000000
    9       -6.866509   1.000000
   10       -6.854107   1.000000
   11       -6.750030   1.000000
   12       -6.745130   1.000000
   13       -5.822589   1.000000
   14       -5.800278   1.000000
   15       -5.381290   1.000000
   16       -5.374065   1.000000
   17       -4.293117   1.000000
   18       -4.276906   1.000000
   19       -3.948586   1.000000
   20       -3.939686   1.000000
   21       -1.548891   0.000000
   22       -1.488559   0.000000
   23       -0.688702   0.000000
   24       -0.677273   0.000000
   25       -0.280279   0.000000
   26       -0.211064   0.000000
   27       -0.172042   0.000000
   28       -0.145408   0.000000
   29        0.863343   0.000000
   30        0.927155   0.000000
   31        1.655803   0.000000
   32        1.680919   0.000000
   33        2.791276   0.000000
   34        2.793000   0.000000
   35        2.915317   0.000000
   36        2.915743   0.000000
   37        3.267284   0.000000
   38        3.267372   0.000000
   39        3.763836   0.000000
   40        3.765432   0.000000
   41        4.344046   0.000000
   42        4.345680   0.000000
   43        4.376269   0.000000
   44        4.376437   0.000000
   45        5.063135   0.000000
   46        5.071480   0.000000
   47        5.384753   0.000000
   48        5.415153   0.000000
   49        5.652450   0.000000
   50        5.655767   0.000000
   51        6.199162   0.000000
   52        6.213371   0.000000
   53        6.326871   0.000000
   54        6.328727   0.000000
   55        6.514873   0.000000
   56        6.515565   0.000000
   57        6.623755   0.000000
   58        6.636846   0.000000
   59        6.935617   0.000000
   60        6.936195   0.000000
   61        6.998822   0.000000
   62        6.999960   0.000000
   63        7.444044   0.000000
   64        7.449675   0.000000
   65        7.729287   0.000000
   66        7.729649   0.000000
   67        7.957617   0.000000
   68        7.959939   0.000000
   69        8.181860   0.000000
   70        8.181934   0.000000
   71        8.372897   0.000000
   72        8.374109   0.000000
   73        8.636157   0.000000
   74        8.636701   0.000000
   75        8.770842   0.000000
   76        8.772745   0.000000
   77        9.354011   0.000000
   78        9.355279   0.000000
   79        9.884024   0.000000
   80        9.891261   0.000000
   81        9.982581   0.000000
   82        9.985057   0.000000
   83       10.131425   0.000000
   84       10.133036   0.000000
   85       10.338772   0.000000
   86       10.340962   0.000000
   87       10.405744   0.000000
   88       10.406779   0.000000
   89       10.517916   0.000000
   90       10.520708   0.000000
   91       10.552718   0.000000
   92       10.554195   0.000000
   93       10.578138   0.000000
   94       10.579887   0.000000
   95       11.024471   0.000000
   96       11.028015   0.000000
   97       11.151649   0.000000
   98       11.154173   0.000000
   99       11.253606   0.000000
  100       11.258779   0.000000
  101       11.328747   0.000000
  102       11.332694   0.000000
  103       11.400612   0.000000
  104       11.403537   0.000000
  105       11.596056   0.000000
  106       11.597526   0.000000
  107       11.686536   0.000000
  108       11.714863   0.000000
  109       11.915167   0.000000
  110       11.919334   0.000000
  111       12.220353   0.000000
  112       12.226416   0.000000
  113       12.303359   0.000000
  114       12.310735   0.000000
  115       12.436154   0.000000
  116       12.450182   0.000000
  117       12.811508   0.000000
  118       12.815248   0.000000
  119       13.032799   0.000000
  120       13.036131   0.000000
  121       13.249580   0.000000
  122       13.266849   0.000000
  123       13.418060   0.000000
  124       13.425903   0.000000
  125       13.540723   0.000000
  126       13.543710   0.000000
  127       13.618668   0.000000
  128       13.654471   0.000000
  129       13.670127   0.000000
  130       13.670654   0.000000
  131       13.889313   0.000000
  132       13.893284   0.000000
  133       14.082761   0.000000
  134       14.084713   0.000000
  135       14.093144   0.000000
  136       14.093952   0.000000
  137       14.160265   0.000000
  138       14.160810   0.000000
  139       14.276472   0.000000
  140       14.288146   0.000000
  141       14.349200   0.000000
  142       14.388271   0.000000
  143       14.504739   0.000000
  144       14.523724   0.000000
 
  0.3500000E+00  0.0000000E+00  0.0000000E+00  0.4901961E-02
    1      -16.323809   1.000000
    2      -16.322693   1.000000
    3      -15.340323   1.000000
    4      -15.336288   1.000000
    5      -11.357627   1.000000
    6      -11.351731   1.000000
    7      -10.055437   1.000000
    8      -10.052785   1.000000
    9       -6.853720   1.000000
   10       -6.842108   1.000000
   11       -6.720993   1.000000
   12       -6.715588   1.000000
   13       -5.788622   1.000000
   14       -5.767798   1.000000
   15       -5.382723   1.000000
   16       -5.377257   1.000000
   17       -4.295243   1.000000
   18       -4.281664   1.000000
   19       -3.982631   1.000000
   20       -3.973251   1.000000
   21       -1.569434   0.000000
   22       -1.509873   0.000000
   23       -0.706954   0.000000
   24       -0.695755   0.000000
   25       -0.327797   0.000000
   26       -0.267090   0.000000
   27       -0.179703   0.000000
   28       -0.149578   0.000000
   29        0.769570   0.000000
   30        0.829242   0.000000
   31        1.616325   0.000000
   32        1.641281   0.000000
   33        2.838451   0.000000
   34        2.839478   0.000000
   35        2.981484   0.000000
   36        2.982004   0.000000
   37        3.338188   0.000000
   38        3.338229   0.000000
   39        3.822132   0.000000
   40        3.824022   0.000000
   41        4.348537   0.000000
   42        4.350123   0.000000
   43        4.435235   0.000000
   44        4.435306   0.000000
   45        5.143113   0.000000
   46        5.149801   0.000000
   47        5.541684   0.000000
   48        5.574656   0.000000
   49        5.636054   0.000000
   50        5.639373   0.000000
   51        6.253359   0.000000
   52        6.262355   0.000000
   53        6.391630   0.000000
   54        6.392392   0.000000
   55        6.409677   0.000000
   56        6.409811   0.000000
   57        6.638278   0.000000
   58        6.653538   0.000000
   59        6.799830   0.000000
   60        6.800325   0.000000
   61        6.951813   0.000000
   62        6.955321   0.000000
   63        7.330325   0.000000
   64        7.336006   0.000000
   65        7.758927   0.000000
   66        7.759331   0.000000
   67        7.879449   0.000000
   68        7.881565   0.000000
   69        8.190688   0.000000
   70        8.191190   0.000000
   71        8.344667   0.000000
   72        8.346578   0.000000
   73        8.641570   0.000000
   74        8.645740   0.000000
   75        8.774193   0.000000
   76        8.774846   0.000000
   77        9.304433   0.000000
   78        9.305837   0.000000
   79        9.918845   0.000000
   80        9.923020   0.000000
   81        9.949436   0.000000
   82        9.956111   0.000000
   83       10.137336   0.000000
   84       10.138624   0.000000
   85       10.390958   0.000000
   86       10.393232   0.000000
   87       10.424665   0.000000
   88       10.425150   0.000000
   89       10.589518   0.000000
   90       10.592179   0.000000
   91       10.608798   0.000000
   92       10.609519   0.000000
   93       10.638557   0.000000
   94       10.639168   0.000000
   95       11.047210   0.000000
   96       11.051245   0.000000
   97       11.105265   0.000000
   98       11.107476   0.000000
   99       11.297909   0.000000
  100       11.302156   0.000000
  101       11.382675   0.000000
  102       11.388555   0.000000
  103       11.444008   0.000000
  104       11.445609   0.000000
  105       11.643731   0.000000
  106       11.646667   0.000000
  107       11.708234   0.000000
  108       11.731904   0.000000
  109       11.936350   0.000000
  110       11.940287   0.000000
  111       12.143736   0.000000
  112       12.149107   0.000000
  113       12.315266   0.000000
  114       12.318126   0.000000
  115       12.550336   0.000000
  116       12.560411   0.000000
  117       12.874363   0.000000
  118       12.881672   0.000000
  119       13.070594   0.000000
  120       13.073307   0.000000
  121       13.225336   0.000000
  122       13.239409   0.000000
  123       13.372771   0.000000
  124       13.372999   0.000000
  125       13.518931   0.000000
  126       13.520603   0.000000
  127       13.587042   0.000000
  128       13.591415   0.000000
  129       13.611876   0.000000
  130       13.640395   0.000000
  131       13.870137   0.000000
  132       13.875305   0.000000
  133       13.969799   0.000000
  134       13.970890   0.000000
  135       13.998933   0.000000
  136       13.999280   0.000000
  137       14.024741   0.000000
  138       14.025446   0.000000
  139       14.250217   0.000000
  140       14.285626   0.000000
  141       14.296623   0.000000
  142       14.303575   0.000000
  143       14.475142   0.000000
  144       14.508332   0.000000
 
  0.3600000E+00  0.0000000E+00  0.0000000E+00  0.4901961E-02
    1      -16.280048   1.000000
    2      -16.278996   1.000000
    3      -15.347460   1.000000
    4      -15.343564   1.000000
    5      -11.361634   1.000000
    6      -11.355964   1.000000
    7      -10.134442   1.000000
    8      -10.131924   1.000000
    9       -6.838850   1.000000
   10       -6.828078   1.000000
   11       -6.692992   1.000000
   12       -6.687184   1.000000
   13       -5.755275   1.000000
   14       -5.735959   1.000000
   15       -5.384468   1.000000
   16       -5.380756   1.000000
   17       -4.298330   1.000000
   18       -4.287419   1.000000
   19       -4.016459   1.000000
   20       -4.006561   1.000000
   21       -1.584872   0.000000
   22       -1.526086   0.000000
   23       -0.739828   0.000000
   24       -0.729757   0.000000
   25       -0.372733   0.000000
   26       -0.318694   0.000000
   27       -0.166873   0.000000
   28       -0.135834   0.000000
   29        0.676576   0.000000
   30        0.732440   0.000000
   31        1.571478   0.000000
   32        1.596175   0.000000
   33        2.889290   0.000000
   34        2.889761   0.000000
   35        3.048468   0.000000
   36        3.049087   0.000000
   37        3.411948   0.000000
   38        3.412019   0.000000
   39        3.877763   0.000000
   40        3.879980   0.000000
   41        4.360207   0.000000
   42        4.361432   0.000000
   43        4.494049   0.000000
   44        4.494161   0.000000
   45        5.223171   0.000000
   46        5.228896   0.000000
   47        5.605778   0.000000
   48        5.607773   0.000000
   49        5.692163   0.000000
   50        5.724376   0.000000
   51        6.263667   0.000000
   52        6.268788   0.000000
   53        6.284687   0.000000
   54        6.285860   0.000000
   55        6.490045   0.000000
   56        6.490897   0.000000
   57        6.670746   0.000000
   58        6.671462   0.000000
   59        6.676247   0.000000
   60        6.691155   0.000000
   61        6.924482   0.000000
   62        6.931319   0.000000
   63        7.219174   0.000000
   64        7.225260   0.000000
   65        7.769014   0.000000
   66        7.770054   0.000000
   67        7.794476   0.000000
   68        7.796020   0.000000
   69        8.232999   0.000000
   70        8.234084   0.000000
   71        8.284350   0.000000
   72        8.286387   0.000000
   73        8.648476   0.000000
   74        8.655636   0.000000
   75        8.826260   0.000000
   76        8.828274   0.000000
   77        9.239391   0.000000
   78        9.240747   0.000000
   79        9.847365   0.000000
   80        9.852329   0.000000
   81       10.008786   0.000000
   82       10.014593   0.000000
   83       10.159288   0.000000
   84       10.159504   0.000000
   85       10.430641   0.000000
   86       10.435132   0.000000
   87       10.455408   0.000000
   88       10.458017   0.000000
   89       10.665337   0.000000
   90       10.668016   0.000000
   91       10.674356   0.000000
   92       10.674483   0.000000
   93       10.701422   0.000000
   94       10.701823   0.000000
   95       10.939062   0.000000
   96       10.942741   0.000000
   97       11.184701   0.000000
   98       11.186778   0.000000
   99       11.322767   0.000000
  100       11.324814   0.000000
  101       11.433961   0.000000
  102       11.442806   0.000000
  103       11.485607   0.000000
  104       11.485829   0.000000
  105       11.684658   0.000000
  106       11.689321   0.000000
  107       11.733162   0.000000
  108       11.750319   0.000000
  109       11.964595   0.000000
  110       11.968140   0.000000
  111       12.079909   0.000000
  112       12.084616   0.000000
  113       12.330921   0.000000
  114       12.331857   0.000000
  115       12.662086   0.000000
  116       12.668922   0.000000
  117       12.920746   0.000000
  118       12.933755   0.000000
  119       13.116338   0.000000
  120       13.116480   0.000000
  121       13.142010   0.000000
  122       13.148838   0.000000
  123       13.347350   0.000000
  124       13.352389   0.000000
  125       13.409662   0.000000
  126       13.413447   0.000000
  127       13.571415   0.000000
  128       13.598471   0.000000
  129       13.639710   0.000000
  130       13.642328   0.000000
  131       13.807971   0.000000
  132       13.810370   0.000000
  133       13.836909   0.000000
  134       13.837274   0.000000
  135       13.885987   0.000000
  136       13.886316   0.000000
  137       13.933667   0.000000
  138       13.936366   0.000000
  139       14.243800   0.000000
  140       14.250395   0.000000
  141       14.255629   0.000000
  142       14.292654   0.000000
  143       14.468497   0.000000
  144       14.543231   0.000000
 
  0.3700000E+00  0.0000000E+00  0.0000000E+00  0.4901961E-02
    1      -16.235922   1.000000
    2      -16.234943   1.000000
    3      -15.356803   1.000000
    4      -15.353064   1.000000
    5      -11.362587   1.000000
    6      -11.357169   1.000000
    7      -10.212403   1.000000
    8      -10.210035   1.000000
    9       -6.822086   1.000000
   10       -6.812179   1.000000
   11       -6.666333   1.000000
   12       -6.660197   1.000000
   13       -5.722754   1.000000
   14       -5.704979   1.000000
   15       -5.386610   1.000000
   16       -5.384626   1.000000
   17       -4.302172   1.000000
   18       -4.293941   1.000000
   19       -4.049839   1.000000
   20       -4.039385   1.000000
   21       -1.595432   0.000000
   22       -1.537477   0.000000
   23       -0.783639   0.000000
   24       -0.774741   0.000000
   25       -0.414203   0.000000
   26       -0.365338   0.000000
   27       -0.138237   0.000000
   28       -0.107686   0.000000
   29        0.584761   0.000000
   30        0.637130   0.000000
   31        1.521913   0.000000
   32        1.546276   0.000000
   33        2.943381   0.000000
   34        2.943417   0.000000
   35        3.115976   0.000000
   36        3.116705   0.000000
   37        3.488380   0.000000
   38        3.488474   0.000000
   39        3.929536   0.000000
   40        3.932080   0.000000
   41        4.380594   0.000000
   42        4.381349   0.000000
   43        4.551836   0.000000
   44        4.552065   0.000000
   45        5.304326   0.000000
   46        5.309462   0.000000
   47        5.567941   0.000000
   48        5.570507   0.000000
   49        5.806503   0.000000
   50        5.835602   0.000000
   51        6.199849   0.000000
   52        6.204907   0.000000
   53        6.239423   0.000000
   54        6.242816   0.000000
   55        6.534553   0.000000
   56        6.535509   0.000000
   57        6.596419   0.000000
   58        6.598451   0.000000
   59        6.711982   0.000000
   60        6.722955   0.000000
   61        6.925547   0.000000
   62        6.936620   0.000000
   63        7.121385   0.000000
   64        7.127916   0.000000
   65        7.650806   0.000000
   66        7.651974   0.000000
   67        7.822113   0.000000
   68        7.823633   0.000000
   69        8.215953   0.000000
   70        8.216936   0.000000
   71        8.285061   0.000000
   72        8.287157   0.000000
   73        8.675426   0.000000
   74        8.684056   0.000000
   75        8.892883   0.000000
   76        8.895402   0.000000
   77        9.163170   0.000000
   78        9.164345   0.000000
   79        9.776822   0.000000
   80        9.782876   0.000000
   81       10.057487   0.000000
   82       10.060957   0.000000
   83       10.197734   0.000000
   84       10.201000   0.000000
   85       10.451218   0.000000
   86       10.453898   0.000000
   87       10.508615   0.000000
   88       10.510809   0.000000
   89       10.731176   0.000000
   90       10.731976   0.000000
   91       10.744567   0.000000
   92       10.744943   0.000000
   93       10.759144   0.000000
   94       10.759840   0.000000
   95       10.853620   0.000000
   96       10.855747   0.000000
   97       11.263462   0.000000
   98       11.264691   0.000000
   99       11.323216   0.000000
  100       11.324967   0.000000
  101       11.479005   0.000000
  102       11.490628   0.000000
  103       11.513650   0.000000
  104       11.514492   0.000000
  105       11.709296   0.000000
  106       11.715769   0.000000
  107       11.772268   0.000000
  108       11.782535   0.000000
  109       11.996310   0.000000
  110       11.999529   0.000000
  111       12.050347   0.000000
  112       12.054484   0.000000
  113       12.346614   0.000000
  114       12.350378   0.000000
  115       12.765238   0.000000
  116       12.769661   0.000000
  117       12.936782   0.000000
  118       12.955967   0.000000
  119       13.027795   0.000000
  120       13.032984   0.000000
  121       13.176400   0.000000
  122       13.176713   0.000000
  123       13.273514   0.000000
  124       13.273718   0.000000
  125       13.371019   0.000000
  126       13.380721   0.000000
  127       13.516899   0.000000
  128       13.533624   0.000000
  129       13.682198   0.000000
  130       13.684272   0.000000
  131       13.721251   0.000000
  132       13.723052   0.000000
  133       13.723579   0.000000
  134       13.728491   0.000000
  135       13.749491   0.000000
  136       13.749557   0.000000
  137       13.865057   0.000000
  138       13.872085   0.000000
  139       14.217266   0.000000
  140       14.228423   0.000000
  141       14.259230   0.000000
  142       14.280645   0.000000
  143       14.463601   0.000000
  144       14.515101   0.000000
 
  0.3800000E+00  0.0000000E+00  0.0000000E+00  0.4901961E-02
    1      -16.191526   1.000000
    2      -16.190630   1.000000
    3      -15.368418   1.000000
    4      -15.364853   1.000000
    5      -11.360309   1.000000
    6      -11.355165   1.000000
    7      -10.289131   1.000000
    8      -10.286929   1.000000
    9       -6.803645   1.000000
   10       -6.794618   1.000000
   11       -6.641320   1.000000
   12       -6.634922   1.000000
   13       -5.691269   1.000000
   14       -5.675081   1.000000
   15       -5.389201   1.000000
   16       -5.388894   1.000000
   17       -4.306549   1.000000
   18       -4.300983   1.000000
   19       -4.082532   1.000000
   20       -4.071485   1.000000
   21       -1.601386   0.000000
   22       -1.544368   0.000000
   23       -0.834423   0.000000
   24       -0.826221   0.000000
   25       -0.451141   0.000000
   26       -0.406526   0.000000
   27       -0.098720   0.000000
   28       -0.068966   0.000000
   29        0.494505   0.000000
   30        0.543711   0.000000
   31        1.468249   0.000000
   32        1.492226   0.000000
   33        2.999952   0.000000
   34        3.000257   0.000000
   35        3.183636   0.000000
   36        3.184490   0.000000
   37        3.567296   0.000000
   38        3.567400   0.000000
   39        3.976438   0.000000
   40        3.979254   0.000000
   41        4.410823   0.000000
   42        4.411090   0.000000
   43        4.607439   0.000000
   44        4.607851   0.000000
   45        5.387002   0.000000
   46        5.391794   0.000000
   47        5.523188   0.000000
   48        5.525670   0.000000
   49        5.843780   0.000000
   50        5.861271   0.000000
   51        6.166127   0.000000
   52        6.180925   0.000000
   53        6.194094   0.000000
   54        6.197871   0.000000
   55        6.448146   0.000000
   56        6.450006   0.000000
   57        6.685635   0.000000
   58        6.689218   0.000000
   59        6.713745   0.000000
   60        6.721250   0.000000
   61        6.955604   0.000000
   62        6.967477   0.000000
   63        7.056912   0.000000
   64        7.061848   0.000000
   65        7.531568   0.000000
   66        7.532465   0.000000
   67        7.820593   0.000000
   68        7.822541   0.000000
   69        8.174060   0.000000
   70        8.174101   0.000000
   71        8.339189   0.000000
   72        8.342056   0.000000
   73        8.711134   0.000000
   74        8.720563   0.000000
   75        8.965393   0.000000
   76        8.968182   0.000000
   77        9.080969   0.000000
   78        9.081891   0.000000
   79        9.715188   0.000000
   80        9.722662   0.000000
   81       10.091463   0.000000
   82       10.092647   0.000000
   83       10.252402   0.000000
   84       10.259193   0.000000
   85       10.469948   0.000000
   86       10.470304   0.000000
   87       10.561196   0.000000
   88       10.563560   0.000000
   89       10.680031   0.000000
   90       10.683483   0.000000
   91       10.816641   0.000000
   92       10.817442   0.000000
   93       10.834115   0.000000
   94       10.835720   0.000000
   95       10.875801   0.000000
   96       10.875974   0.000000
   97       11.293386   0.000000
   98       11.296596   0.000000
   99       11.345748   0.000000
  100       11.348836   0.000000
  101       11.510875   0.000000
  102       11.515011   0.000000
  103       11.522454   0.000000
  104       11.532353   0.000000
  105       11.722437   0.000000
  106       11.729632   0.000000
  107       11.828446   0.000000
  108       11.833581   0.000000
  109       12.024599   0.000000
  110       12.027018   0.000000
  111       12.072394   0.000000
  112       12.075984   0.000000
  113       12.361102   0.000000
  114       12.366287   0.000000
  115       12.836778   0.000000
  116       12.843654   0.000000
  117       12.912857   0.000000
  118       12.920703   0.000000
  119       12.930537   0.000000
  120       12.946097   0.000000
  121       13.172278   0.000000
  122       13.173699   0.000000
  123       13.246446   0.000000
  124       13.246773   0.000000
  125       13.369898   0.000000
  126       13.377813   0.000000
  127       13.442982   0.000000
  128       13.451065   0.000000
  129       13.576893   0.000000
  130       13.577614   0.000000
  131       13.612222   0.000000
  132       13.612581   0.000000
  133       13.638514   0.000000
  134       13.640628   0.000000
  135       13.774477   0.000000
  136       13.774945   0.000000
  137       13.791457   0.000000
  138       13.799787   0.000000
  139       14.190277   0.000000
  140       14.202520   0.000000
  141       14.276762   0.000000
  142       14.302031   0.000000
  143       14.443600   0.000000
  144       14.472261   0.000000
 
  0.3900000E+00  0.0000000E+00  0.0000000E+00  0.4901961E-02
    1      -16.146962   1.000000
    2      -16.146158   1.000000
    3      -15.382345   1.000000
    4      -15.378968   1.000000
    5      -11.354644   1.000000
    6      -11.349794   1.000000
    7      -10.364439   1.000000
    8      -10.362420   1.000000
    9       -6.783752   1.000000
   10       -6.775616   1.000000
   11       -6.618255   1.000000
   12       -6.611662   1.000000
   13       -5.661032   1.000000
   14       -5.646483   1.000000
   15       -5.393543   1.000000
   16       -5.392258   1.000000
   17       -4.311231   1.000000
   18       -4.308289   1.000000
   19       -4.114283   1.000000
   20       -4.102610   1.000000
   21       -1.603046   0.000000
   22       -1.547119   0.000000
   23       -0.889005   0.000000
   24       -0.880885   0.000000
   25       -0.482659   0.000000
   26       -0.441788   0.000000
   27       -0.052066   0.000000
   28       -0.022789   0.000000
   29        0.406225   0.000000
   30        0.452690   0.000000
   31        1.411065   0.000000
   32        1.434622   0.000000
   33        3.058841   0.000000
   34        3.059404   0.000000
   35        3.250975   0.000000
   36        3.251970   0.000000
   37        3.648529   0.000000
   38        3.648630   0.000000
   39        4.018033   0.000000
   40        4.020993   0.000000
   41        4.451164   0.000000
   42        4.451324   0.000000
   43        4.659255   0.000000
   44        4.659920   0.000000
   45        5.469014   0.000000
   46        5.474361   0.000000
   47        5.476317   0.000000
   48        5.479318   0.000000
   49        5.793073   0.000000
   50        5.801295   0.000000
   51        6.134750   0.000000
   52        6.136573   0.000000
   53        6.153240   0.000000
   54        6.161445   0.000000
   55        6.422907   0.000000
   56        6.433167   0.000000
   57        6.667051   0.000000
   58        6.670693   0.000000
   59        6.795214   0.000000
   60        6.799939   0.000000
   61        6.988580   0.000000
   62        6.990484   0.000000
   63        7.054989   0.000000
   64        7.060168   0.000000
   65        7.415149   0.000000
   66        7.415788   0.000000
   67        7.771912   0.000000
   68        7.773843   0.000000
   69        8.181953   0.000000
   70        8.182721   0.000000
   71        8.390751   0.000000
   72        8.394620   0.000000
   73        8.744824   0.000000
   74        8.754492   0.000000
   75        8.998615   0.000000
   76        8.999045   0.000000
   77        9.041200   0.000000
   78        9.044450   0.000000
   79        9.670188   0.000000
   80        9.679607   0.000000
   81       10.110751   0.000000
   82       10.110893   0.000000
   83       10.317173   0.000000
   84       10.327101   0.000000
   85       10.472815   0.000000
   86       10.477519   0.000000
   87       10.596881   0.000000
   88       10.602012   0.000000
   89       10.611434   0.000000
   90       10.612514   0.000000
   91       10.886949   0.000000
   92       10.887950   0.000000
   93       10.918157   0.000000
   94       10.920103   0.000000
   95       10.944836   0.000000
   96       10.945173   0.000000
   97       11.253872   0.000000
   98       11.260810   0.000000
   99       11.421298   0.000000
  100       11.423653   0.000000
  101       11.477782   0.000000
  102       11.478527   0.000000
  103       11.556218   0.000000
  104       11.568670   0.000000
  105       11.744587   0.000000
  106       11.750738   0.000000
  107       11.897447   0.000000
  108       11.899635   0.000000
  109       12.059690   0.000000
  110       12.061687   0.000000
  111       12.123301   0.000000
  112       12.127682   0.000000
  113       12.371585   0.000000
  114       12.376531   0.000000
  115       12.765518   0.000000
  116       12.773357   0.000000
  117       12.878137   0.000000
  118       12.903409   0.000000
  119       12.907542   0.000000
  120       12.907593   0.000000
  121       13.116483   0.000000
  122       13.122602   0.000000
  123       13.286226   0.000000
  124       13.289265   0.000000
  125       13.336550   0.000000
  126       13.340384   0.000000
  127       13.386360   0.000000
  128       13.387570   0.000000
  129       13.475196   0.000000
  130       13.475460   0.000000
  131       13.498280   0.000000
  132       13.500486   0.000000
  133       13.559498   0.000000
  134       13.562117   0.000000
  135       13.695329   0.000000
  136       13.708462   0.000000
  137       13.851215   0.000000
  138       13.865255   0.000000
  139       14.151591   0.000000
  140       14.156613   0.000000
  141       14.289362   0.000000
  142       14.365155   0.000000
  143       14.395955   0.000000
  144       14.456974   0.000000
 
  0.4000000E+00  0.0000000E+00  0.0000000E+00  0.4901961E-02
    1      -16.102332   1.000000
    2      -16.101632   1.000000
    3      -15.398609   1.000000
    4      -15.395433   1.000000
    5      -11.345462   1.000000
    6      -11.340925   1.000000
    7      -10.438145   1.000000
    8      -10.436325   1.000000
    9       -6.762663   1.000000
   10       -6.755431   1.000000
   11       -6.597441   1.000000
   12       -6.590728   1.000000
   13       -5.632251   1.000000
   14       -5.619397   1.000000
   15       -5.398520   1.000000
   16       -5.395761   1.000000
   17       -4.315988   1.000000
   18       -4.315597   1.000000
   19       -4.144829   1.000000
   20       -4.132505   1.000000
   21       -1.600738   0.000000
   22       -1.546101   0.000000
   23       -0.945160   0.000000
   24       -0.936552   0.000000
   25       -0.508056   0.000000
   26       -0.470693   0.000000
   27       -0.001138   0.000000
   28        0.028447   0.000000
   29        0.320528   0.000000
   30        0.364931   0.000000
   31        1.350885   0.000000
   32        1.374002   0.000000
   33        3.119526   0.000000
   34        3.120278   0.000000
   35        3.317372   0.000000
   36        3.318526   0.000000
   37        3.731912   0.000000
   38        3.732000   0.000000
   39        4.054707   0.000000
   40        4.057639   0.000000
   41        4.501139   0.000000
   42        4.501606   0.000000
   43        4.705070   0.000000
   44        4.706063   0.000000
   45        5.425459   0.000000
   46        5.426795   0.000000
   47        5.558253   0.000000
   48        5.562029   0.000000
   49        5.704860   0.000000
   50        5.709422   0.000000
   51        6.071179   0.000000
   52        6.075487   0.000000
   53        6.081404   0.000000
   54        6.081773   0.000000
   55        6.482225   0.000000
   56        6.499242   0.000000
   57        6.586573   0.000000
   58        6.589242   0.000000
   59        6.909201   0.000000
   60        6.916838   0.000000
   61        7.011367   0.000000
   62        7.014550   0.000000
   63        7.097428   0.000000
   64        7.106573   0.000000
   65        7.306977   0.000000
   66        7.307592   0.000000
   67        7.688367   0.000000
   68        7.689681   0.000000
   69        8.230881   0.000000
   70        8.231905   0.000000
   71        8.433293   0.000000
   72        8.438311   0.000000
   73        8.767708   0.000000
   74        8.777016   0.000000
   75        8.924918   0.000000
   76        8.925182   0.000000
   77        9.118038   0.000000
   78        9.121633   0.000000
   79        9.649757   0.000000
   80        9.661721   0.000000
   81       10.115600   0.000000
   82       10.115967   0.000000
   83       10.381269   0.000000
   84       10.393187   0.000000
   85       10.420754   0.000000
   86       10.430041   0.000000
   87       10.587531   0.000000
   88       10.588585   0.000000
   89       10.649471   0.000000
   90       10.650752   0.000000
   91       10.947085   0.000000
   92       10.947465   0.000000
   93       11.004788   0.000000
   94       11.006989   0.000000
   95       11.019699   0.000000
   96       11.020294   0.000000
   97       11.215043   0.000000
   98       11.223914   0.000000
   99       11.417754   0.000000
  100       11.418061   0.000000
  101       11.494200   0.000000
  102       11.496896   0.000000
  103       11.589968   0.000000
  104       11.601802   0.000000
  105       11.780466   0.000000
  106       11.785271   0.000000
  107       11.973939   0.000000
  108       11.974644   0.000000
  109       12.099577   0.000000
  110       12.100686   0.000000
  111       12.186055   0.000000
  112       12.191813   0.000000
  113       12.377044   0.000000
  114       12.380044   0.000000
  115       12.648320   0.000000
  116       12.655321   0.000000
  117       12.822367   0.000000
  118       12.845709   0.000000
  119       12.851706   0.000000
  120       12.852064   0.000000
  121       13.140151   0.000000
  122       13.150020   0.000000
  123       13.212032   0.000000
  124       13.214133   0.000000
  125       13.242808   0.000000
  126       13.243549   0.000000
  127       13.354872   0.000000
  128       13.355845   0.000000
  129       13.408380   0.000000
  130       13.409665   0.000000
  131       13.473796   0.000000
  132       13.477104   0.000000
  133       13.504506   0.000000
  134       13.506307   0.000000
  135       13.612575   0.000000
  136       13.623919   0.000000
  137       13.926834   0.000000
  138       13.945565   0.000000
  139       14.108226   0.000000
  140       14.127270   0.000000
  141       14.246380   0.000000
  142       14.259082   0.000000
  143       14.323962   0.000000
  144       14.353151   0.000000
 
  0.4100000E+00  0.0000000E+00  0.0000000E+00  0.4901961E-02
    1      -16.057748   1.000000
    2      -16.057162   1.000000
    3      -15.417211   1.000000
    4      -15.414247   1.000000
    5      -11.332664   1.000000
    6      -11.328456   1.000000
    7      -10.510072   1.000000
    8      -10.508468   1.000000
    9       -6.740655   1.000000
   10       -6.734341   1.000000
   11       -6.579178   1.000000
   12       -6.572428   1.000000
   13       -5.605123   1.000000
   14       -5.594021   1.000000
   15       -5.403748   1.000000
   16       -5.399670   1.000000
   17       -4.322656   1.000000
   18       -4.320597   1.000000
   19       -4.173912   1.000000
   20       -4.160923   1.000000
   21       -1.594793   0.000000
   22       -1.541681   0.000000
   23       -1.001367   0.000000
   24       -0.991799   0.000000
   25       -0.526780   0.000000
   26       -0.492863   0.000000
   27        0.050605   0.000000
   28        0.081960   0.000000
   29        0.239086   0.000000
   30        0.282719   0.000000
   31        1.288178   0.000000
   32        1.310846   0.000000
   33        3.181406   0.000000
   34        3.182288   0.000000
   35        3.382019   0.000000
   36        3.383349   0.000000
   37        3.817268   0.000000
   38        3.817336   0.000000
   39        4.087579   0.000000
   40        4.090300   0.000000
   41        4.559746   0.000000
   42        4.560386   0.000000
   43        4.741952   0.000000
   44        4.743335   0.000000
   45        5.378749   0.000000
   46        5.379577   0.000000
   47        5.605989   0.000000
   48        5.606883   0.000000
   49        5.647010   0.000000
   50        5.652602   0.000000
   51        5.975597   0.000000
   52        5.980043   0.000000
   53        6.015078   0.000000
   54        6.017300   0.000000
   55        6.488276   0.000000
   56        6.489824   0.000000
   57        6.572885   0.000000
   58        6.587667   0.000000
   59        7.007317   0.000000
   60        7.015405   0.000000
   61        7.049004   0.000000
   62        7.053221   0.000000
   63        7.145073   0.000000
   64        7.153419   0.000000
   65        7.229541   0.000000
   66        7.232571   0.000000
   67        7.590722   0.000000
   68        7.590929   0.000000
   69        8.300906   0.000000
   70        8.302030   0.000000
   71        8.455020   0.000000
   72        8.461012   0.000000
   73        8.773643   0.000000
   74        8.782017   0.000000
   75        8.873253   0.000000
   76        8.873733   0.000000
   77        9.194743   0.000000
   78        9.198916   0.000000
   79        9.659952   0.000000
   80        9.674799   0.000000
   81       10.103668   0.000000
   82       10.105281   0.000000
   83       10.319790   0.000000
   84       10.328745   0.000000
   85       10.464338   0.000000
   86       10.475852   0.000000
   87       10.624851   0.000000
   88       10.627935   0.000000
   89       10.676927   0.000000
   90       10.677426   0.000000
   91       10.974768   0.000000
   92       10.977942   0.000000
   93       11.086759   0.000000
   94       11.087956   0.000000
   95       11.098085   0.000000
   96       11.098670   0.000000
   97       11.205369   0.000000
   98       11.213261   0.000000
   99       11.354757   0.000000
  100       11.355634   0.000000
  101       11.557781   0.000000
  102       11.563162   0.000000
  103       11.626037   0.000000
  104       11.634708   0.000000
  105       11.824200   0.000000
  106       11.828058   0.000000
  107       12.053410   0.000000
  108       12.053490   0.000000
  109       12.131357   0.000000
  110       12.132781   0.000000
  111       12.256202   0.000000
  112       12.263266   0.000000
  113       12.376041   0.000000
  114       12.376647   0.000000
  115       12.532870   0.000000
  116       12.540066   0.000000
  117       12.759660   0.000000
  118       12.760215   0.000000
  119       12.767312   0.000000
  120       12.788072   0.000000
  121       13.106164   0.000000
  122       13.108134   0.000000
  123       13.122230   0.000000
  124       13.123107   0.000000
  125       13.154345   0.000000
  126       13.158099   0.000000
  127       13.279049   0.000000
  128       13.285101   0.000000
  129       13.340283   0.000000
  130       13.342884   0.000000
  131       13.484623   0.000000
  132       13.485015   0.000000
  133       13.534327   0.000000
  134       13.540675   0.000000
  135       13.558036   0.000000
  136       13.559235   0.000000
  137       14.000808   0.000000
  138       14.021590   0.000000
  139       14.054026   0.000000
  140       14.058404   0.000000
  141       14.161129   0.000000
  142       14.168435   0.000000
  143       14.193651   0.000000
  144       14.248069   0.000000
 
  0.4200000E+00  0.0000000E+00  0.0000000E+00  0.4901961E-02
    1      -16.013330   1.000000
    2      -16.012868   1.000000
    3      -15.438133   1.000000
    4      -15.435389   1.000000
    5      -11.316175   1.000000
    6      -11.312308   1.000000
    7      -10.580047   1.000000
    8      -10.578674   1.000000
    9       -6.718026   1.000000
   10       -6.712645   1.000000
   11       -6.563744   1.000000
   12       -6.557050   1.000000
   13       -5.579827   1.000000
   14       -5.570530   1.000000
   15       -5.409131   1.000000
   16       -5.403929   1.000000
   17       -4.329216   1.000000
   18       -4.324837   1.000000
   19       -4.201269   1.000000
   20       -4.187617   1.000000
   21       -1.585516   0.000000
   22       -1.534189   0.000000
   23       -1.056600   0.000000
   24       -1.045686   0.000000
   25       -0.538412   0.000000
   26       -0.507982   0.000000
   27        0.091334   0.000000
   28        0.119095   0.000000
   29        0.179906   0.000000
   30        0.217224   0.000000
   31        1.223367   0.000000
   32        1.245587   0.000000
   33        3.243826   0.000000
   34        3.244784   0.000000
   35        3.443859   0.000000
   36        3.445375   0.000000
   37        3.904384   0.000000
   38        3.904433   0.000000
   39        4.118168   0.000000
   40        4.120520   0.000000
   41        4.625233   0.000000
   42        4.625920   0.000000
   43        4.766421   0.000000
   44        4.768206   0.000000
   45        5.337566   0.000000
   46        5.337842   0.000000
   47        5.505988   0.000000
   48        5.506999   0.000000
   49        5.737110   0.000000
   50        5.741451   0.000000
   51        5.873094   0.000000
   52        5.876308   0.000000
   53        5.958983   0.000000
   54        5.961130   0.000000
   55        6.387994   0.000000
   56        6.389156   0.000000
   57        6.655810   0.000000
   58        6.671118   0.000000
   59        7.007599   0.000000
   60        7.009493   0.000000
   61        7.097627   0.000000
   62        7.103140   0.000000
   63        7.181926   0.000000
   64        7.188349   0.000000
   65        7.265480   0.000000
   66        7.276281   0.000000
   67        7.491225   0.000000
   68        7.492917   0.000000
   69        8.379353   0.000000
   70        8.380991   0.000000
   71        8.441036   0.000000
   72        8.447529   0.000000
   73        8.762037   0.000000
   74        8.768924   0.000000
   75        8.860339   0.000000
   76        8.862019   0.000000
   77        9.270550   0.000000
   78        9.275405   0.000000
   79        9.701249   0.000000
   80        9.718674   0.000000
   81       10.067065   0.000000
   82       10.069984   0.000000
   83       10.237853   0.000000
   84       10.249208   0.000000
   85       10.533334   0.000000
   86       10.547103   0.000000
   87       10.676271   0.000000
   88       10.684142   0.000000
   89       10.686556   0.000000
   90       10.690499   0.000000
   91       10.956485   0.000000
   92       10.965743   0.000000
   93       11.133812   0.000000
   94       11.134753   0.000000
   95       11.187986   0.000000
   96       11.189544   0.000000
   97       11.243931   0.000000
   98       11.248608   0.000000
   99       11.319704   0.000000
  100       11.320204   0.000000
  101       11.604506   0.000000
  102       11.614809   0.000000
  103       11.671565   0.000000
  104       11.674154   0.000000
  105       11.871517   0.000000
  106       11.874799   0.000000
  107       12.130270   0.000000
  108       12.130600   0.000000
  109       12.140245   0.000000
  110       12.146995   0.000000
  111       12.330344   0.000000
  112       12.338686   0.000000
  113       12.356198   0.000000
  114       12.361477   0.000000
  115       12.433100   0.000000
  116       12.441164   0.000000
  117       12.679553   0.000000
  118       12.687057   0.000000
  119       12.708372   0.000000
  120       12.730200   0.000000
  121       12.997858   0.000000
  122       12.999186   0.000000
  123       13.001401   0.000000
  124       13.002159   0.000000
  125       13.062645   0.000000
  126       13.063454   0.000000
  127       13.233625   0.000000
  128       13.237452   0.000000
  129       13.300938   0.000000
  130       13.309022   0.000000
  131       13.457743   0.000000
  132       13.460995   0.000000
  133       13.508299   0.000000
  134       13.513463   0.000000
  135       13.644412   0.000000
  136       13.649289   0.000000
  137       13.974983   0.000000
  138       13.985961   0.000000
  139       14.051516   0.000000
  140       14.059273   0.000000
  141       14.075653   0.000000
  142       14.121239   0.000000
  143       14.136890   0.000000
  144       14.257570   0.000000
 
  0.4300000E+00  0.0000000E+00  0.0000000E+00  0.4901961E-02
    1      -15.969199   1.000000
    2      -15.968874   1.000000
    3      -15.461336   1.000000
    4      -15.458819   1.000000
    5      -11.295951   1.000000
    6      -11.292435   1.000000
    7      -10.647900   1.000000
    8      -10.646774   1.000000
    9       -6.695097   1.000000
   10       -6.690666   1.000000
   11       -6.551388   1.000000
   12       -6.544854   1.000000
   13       -5.556515   1.000000
   14       -5.549065   1.000000
   15       -5.414579   1.000000
   16       -5.408482   1.000000
   17       -4.335039   1.000000
   18       -4.328499   1.000000
   19       -4.226666   1.000000
   20       -4.212374   1.000000
   21       -1.573179   0.000000
   22       -1.523906   0.000000
   23       -1.110144   0.000000
   24       -1.097571   0.000000
   25       -0.542655   0.000000
   26       -0.515815   0.000000
   27        0.066203   0.000000
   28        0.073804   0.000000
   29        0.215331   0.000000
   30        0.216277   0.000000
   31        1.156831   0.000000
   32        1.178608   0.000000
   33        3.306049   0.000000
   34        3.307029   0.000000
   35        3.501537   0.000000
   36        3.503232   0.000000
   37        3.992962   0.000000
   38        3.993025   0.000000
   39        4.148070   0.000000
   40        4.149940   0.000000
   41        4.695630   0.000000
   42        4.696252   0.000000
   43        4.775256   0.000000
   44        4.777346   0.000000
   45        5.304045   0.000000
   46        5.304191   0.000000
   47        5.406833   0.000000
   48        5.407308   0.000000
   49        5.774375   0.000000
   50        5.776348   0.000000
   51        5.829440   0.000000
   52        5.834202   0.000000
   53        5.909430   0.000000
   54        5.911562   0.000000
   55        6.289531   0.000000
   56        6.291035   0.000000
   57        6.718682   0.000000
   58        6.733343   0.000000
   59        6.943279   0.000000
   60        6.944288   0.000000
   61        7.143365   0.000000
   62        7.152553   0.000000
   63        7.204013   0.000000
   64        7.209546   0.000000
   65        7.382980   0.000000
   66        7.397519   0.000000
   67        7.408213   0.000000
   68        7.413401   0.000000
   69        8.389379   0.000000
   70        8.393093   0.000000
   71        8.458953   0.000000
   72        8.459076   0.000000
   73        8.740274   0.000000
   74        8.745360   0.000000
   75        8.889690   0.000000
   76        8.893629   0.000000
   77        9.345478   0.000000
   78        9.351094   0.000000
   79        9.766922   0.000000
   80        9.785870   0.000000
   81        9.997387   0.000000
   82        9.999453   0.000000
   83       10.184121   0.000000
   84       10.195050   0.000000
   85       10.597039   0.000000
   86       10.611749   0.000000
   87       10.674865   0.000000
   88       10.676665   0.000000
   89       10.744652   0.000000
   90       10.749072   0.000000
   91       10.916976   0.000000
   92       10.931195   0.000000
   93       11.125575   0.000000
   94       11.127124   0.000000
   95       11.281374   0.000000
   96       11.283157   0.000000
   97       11.311254   0.000000
   98       11.313703   0.000000
   99       11.348684   0.000000
  100       11.348939   0.000000
  101       11.638749   0.000000
  102       11.651346   0.000000
  103       11.719188   0.000000
  104       11.720841   0.000000
  105       11.919696   0.000000
  106       11.922714   0.000000
  107       12.115149   0.000000
  108       12.128671   0.000000
  109       12.190392   0.000000
  110       12.191566   0.000000
  111       12.294511   0.000000
  112       12.298819   0.000000
  113       12.392062   0.000000
  114       12.393605   0.000000
  115       12.406124   0.000000
  116       12.414102   0.000000
  117       12.622898   0.000000
  118       12.630351   0.000000
  119       12.676405   0.000000
  120       12.689677   0.000000
  121       12.874783   0.000000
  122       12.875823   0.000000
  123       12.903030   0.000000
  124       12.904699   0.000000
  125       12.948294   0.000000
  126       12.948612   0.000000
  127       13.122158   0.000000
  128       13.126924   0.000000
  129       13.326076   0.000000
  130       13.331187   0.000000
  131       13.381292   0.000000
  132       13.382170   0.000000
  133       13.545864   0.000000
  134       13.558805   0.000000
  135       13.726887   0.000000
  136       13.731512   0.000000
  137       13.878887   0.000000
  138       13.893671   0.000000
  139       13.988670   0.000000
  140       13.995059   0.000000
  141       14.001552   0.000000
  142       14.060082   0.000000
  143       14.131984   0.000000
  144       14.254829   0.000000
 
  0.4400000E+00  0.0000000E+00  0.0000000E+00  0.4901961E-02
    1      -15.925488   1.000000
    2      -15.925309   1.000000
    3      -15.486761   1.000000
    4      -15.484474   1.000000
    5      -11.271970   1.000000
    6      -11.268813   1.000000
    7      -10.713465   1.000000
    8      -10.712601   1.000000
    9       -6.672208   1.000000
   10       -6.668742   1.000000
   11       -6.542312   1.000000
   12       -6.536049   1.000000
   13       -5.535294   1.000000
   14       -5.529715   1.000000
   15       -5.420024   1.000000
   16       -5.413293   1.000000
   17       -4.339894   1.000000
   18       -4.331376   1.000000
   19       -4.249880   1.000000
   20       -4.234995   1.000000
   21       -1.557995   0.000000
   22       -1.511037   0.000000
   23       -1.161502   0.000000
   24       -1.147008   0.000000
   25       -0.539335   0.000000
   26       -0.516210   0.000000
   27       -0.006058   0.000000
   28        0.009442   0.000000
   29        0.265461   0.000000
   30        0.277388   0.000000
   31        1.088912   0.000000
   32        1.110256   0.000000
   33        3.367228   0.000000
   34        3.368175   0.000000
   35        3.553363   0.000000
   36        3.555210   0.000000
   37        4.082576   0.000000
   38        4.082695   0.000000
   39        4.178807   0.000000
   40        4.180139   0.000000
   41        4.766933   0.000000
   42        4.768418   0.000000
   43        4.769092   0.000000
   44        4.769575   0.000000
   45        5.278671   0.000000
   46        5.279020   0.000000
   47        5.310236   0.000000
   48        5.310277   0.000000
   49        5.683417   0.000000
   50        5.685137   0.000000
   51        5.866101   0.000000
   52        5.868006   0.000000
   53        5.923787   0.000000
   54        5.928257   0.000000
   55        6.200134   0.000000
   56        6.201917   0.000000
   57        6.719663   0.000000
   58        6.730158   0.000000
   59        6.923485   0.000000
   60        6.924656   0.000000
   61        7.130733   0.000000
   62        7.140210   0.000000
   63        7.247520   0.000000
   64        7.250372   0.000000
   65        7.355745   0.000000
   66        7.360483   0.000000
   67        7.524166   0.000000
   68        7.537504   0.000000
   69        8.313540   0.000000
   70        8.317015   0.000000
   71        8.515477   0.000000
   72        8.517027   0.000000
   73        8.729904   0.000000
   74        8.732565   0.000000
   75        8.949446   0.000000
   76        8.956135   0.000000
   77        9.419426   0.000000
   78        9.425994   0.000000
   79        9.844304   0.000000
   80        9.863219   0.000000
   81        9.903806   0.000000
   82        9.903944   0.000000
   83       10.151640   0.000000
   84       10.160956   0.000000
   85       10.639501   0.000000
   86       10.650674   0.000000
   87       10.653157   0.000000
   88       10.661740   0.000000
   89       10.814683   0.000000
   90       10.819771   0.000000
   91       10.877721   0.000000
   92       10.894198   0.000000
   93       11.095910   0.000000
   94       11.097355   0.000000
   95       11.376493   0.000000
   96       11.378542   0.000000
   97       11.387982   0.000000
   98       11.389100   0.000000
   99       11.417691   0.000000
  100       11.418114   0.000000
  101       11.671340   0.000000
  102       11.683837   0.000000
  103       11.754959   0.000000
  104       11.759049   0.000000
  105       11.965778   0.000000
  106       11.969264   0.000000
  107       12.055032   0.000000
  108       12.074919   0.000000
  109       12.163983   0.000000
  110       12.166407   0.000000
  111       12.266389   0.000000
  112       12.270169   0.000000
  113       12.394399   0.000000
  114       12.394835   0.000000
  115       12.470717   0.000000
  116       12.480705   0.000000
  117       12.600142   0.000000
  118       12.605934   0.000000
  119       12.660749   0.000000
  120       12.664558   0.000000
  121       12.753533   0.000000
  122       12.754647   0.000000
  123       12.830106   0.000000
  124       12.832985   0.000000
  125       12.837260   0.000000
  126       12.837470   0.000000
  127       13.012233   0.000000
  128       13.017700   0.000000
  129       13.305111   0.000000
  130       13.305928   0.000000
  131       13.332239   0.000000
  132       13.333482   0.000000
  133       13.580846   0.000000
  134       13.599647   0.000000
  135       13.732141   0.000000
  136       13.733695   0.000000
  137       13.813410   0.000000
  138       13.817427   0.000000
  139       13.905359   0.000000
  140       13.913400   0.000000
  141       13.950569   0.000000
  142       13.962810   0.000000
  143       14.055748   0.000000
  144       14.074716   0.000000
 
  0.4500000E+00  0.0000000E+00  0.0000000E+00  0.4901961E-02
    1      -15.882330   1.000000
    2      -15.882309   1.000000
    3      -15.514332   1.000000
    4      -15.512279   1.000000
    5      -11.244239   1.000000
    6      -11.241445   1.000000
    7      -10.776579   1.000000
    8      -10.775992   1.000000
    9       -6.649724   1.000000
   10       -6.647238   1.000000
   11       -6.536660   1.000000
   12       -6.530784   1.000000
   13       -5.516229   1.000000
   14       -5.512520   1.000000
   15       -5.425441   1.000000
   16       -5.418358   1.000000
   17       -4.343554   1.000000
   18       -4.333262   1.000000
   19       -4.270723   1.000000
   20       -4.255326   1.000000
   21       -1.540111   0.000000
   22       -1.495702   0.000000
   23       -1.210324   0.000000
   24       -1.193685   0.000000
   25       -0.528411   0.000000
   26       -0.509124   0.000000
   27       -0.076729   0.000000
   28       -0.061214   0.000000
   29        0.327040   0.000000
   30        0.342238   0.000000
   31        1.019918   0.000000
   32        1.040840   0.000000
   33        3.426375   0.000000
   34        3.427229   0.000000
   35        3.597372   0.000000
   36        3.599305   0.000000
   37        4.172503   0.000000
   38        4.172708   0.000000
   39        4.211753   0.000000
   40        4.212559   0.000000
   41        4.743391   0.000000
   42        4.745360   0.000000
   43        4.840935   0.000000
   44        4.841069   0.000000
   45        5.217328   0.000000
   46        5.217565   0.000000
   47        5.260226   0.000000
   48        5.260546   0.000000
   49        5.603420   0.000000
   50        5.604740   0.000000
   51        5.824184   0.000000
   52        5.825616   0.000000
   53        6.019980   0.000000
   54        6.024513   0.000000
   55        6.129002   0.000000
   56        6.130900   0.000000
   57        6.651089   0.000000
   58        6.657108   0.000000
   59        6.965627   0.000000
   60        6.970121   0.000000
   61        7.054980   0.000000
   62        7.062199   0.000000
   63        7.313465   0.000000
   64        7.316621   0.000000
   65        7.345414   0.000000
   66        7.346698   0.000000
   67        7.658197   0.000000
   68        7.671241   0.000000
   69        8.225905   0.000000
   70        8.228712   0.000000
   71        8.520167   0.000000
   72        8.523139   0.000000
   73        8.765819   0.000000
   74        8.765895   0.000000
   75        9.028518   0.000000
   76        9.038116   0.000000
   77        9.491358   0.000000
   78        9.499277   0.000000
   79        9.798324   0.000000
   80        9.799093   0.000000
   81        9.918213   0.000000
   82        9.933104   0.000000
   83       10.126101   0.000000
   84       10.134071   0.000000
   85       10.609515   0.000000
   86       10.622062   0.000000
   87       10.676436   0.000000
   88       10.687676   0.000000
   89       10.837831   0.000000
   90       10.859234   0.000000
   91       10.896397   0.000000
   92       10.896576   0.000000
   93       11.082590   0.000000
   94       11.083513   0.000000
   95       11.463264   0.000000
   96       11.463596   0.000000
   97       11.472017   0.000000
   98       11.474451   0.000000
   99       11.496989   0.000000
  100       11.497241   0.000000
  101       11.705127   0.000000
  102       11.716612   0.000000
  103       11.771693   0.000000
  104       11.777135   0.000000
  105       11.965420   0.000000
  106       11.991740   0.000000
  107       12.014773   0.000000
  108       12.015715   0.000000
  109       12.079403   0.000000
  110       12.080553   0.000000
  111       12.267838   0.000000
  112       12.269265   0.000000
  113       12.423600   0.000000
  114       12.423627   0.000000
  115       12.499622   0.000000
  116       12.507210   0.000000
  117       12.606479   0.000000
  118       12.609427   0.000000
  119       12.636958   0.000000
  120       12.638376   0.000000
  121       12.649688   0.000000
  122       12.650394   0.000000
  123       12.742658   0.000000
  124       12.743134   0.000000
  125       12.810072   0.000000
  126       12.812043   0.000000
  127       12.910579   0.000000
  128       12.917129   0.000000
  129       13.237188   0.000000
  130       13.237365   0.000000
  131       13.322250   0.000000
  132       13.322469   0.000000
  133       13.594299   0.000000
  134       13.612923   0.000000
  135       13.626140   0.000000
  136       13.627088   0.000000
  137       13.773608   0.000000
  138       13.774477   0.000000
  139       13.805170   0.000000
  140       13.806250   0.000000
  141       13.997078   0.000000
  142       14.008843   0.000000
  143       14.035297   0.000000
  144       14.046381   0.000000
 
  0.4600000E+00  0.0000000E+00  0.0000000E+00  0.4901961E-02
    1      -15.840007   1.000000
    2      -15.839860   1.000000
    3      -15.543955   1.000000
    4      -15.542135   1.000000
    5      -11.212787   1.000000
    6      -11.210358   1.000000
    7      -10.837085   1.000000
    8      -10.836791   1.000000
    9       -6.628027   1.000000
   10       -6.626529   1.000000
   11       -6.534503   1.000000
   12       -6.529132   1.000000
   13       -5.499323   1.000000
   14       -5.497454   1.000000
   15       -5.430859   1.000000
   16       -5.423726   1.000000
   17       -4.345798   1.000000
   18       -4.333951   1.000000
   19       -4.289055   1.000000
   20       -4.273256   1.000000
   21       -1.519607   0.000000
   22       -1.477939   0.000000
   23       -1.256377   0.000000
   24       -1.237397   0.000000
   25       -0.509966   0.000000
   26       -0.494611   0.000000
   27       -0.143943   0.000000
   28       -0.130399   0.000000
   29        0.392366   0.000000
   30        0.409029   0.000000
   31        0.950127   0.000000
   32        0.970640   0.000000
   33        3.482329   0.000000
   34        3.483023   0.000000
   35        3.631505   0.000000
   36        3.633418   0.000000
   37        4.248013   0.000000
   38        4.248353   0.000000
   39        4.261273   0.000000
   40        4.261628   0.000000
   41        4.708975   0.000000
   42        4.710507   0.000000
   43        4.903620   0.000000
   44        4.904037   0.000000
   45        5.135082   0.000000
   46        5.135364   0.000000
   47        5.244839   0.000000
   48        5.245645   0.000000
   49        5.537782   0.000000
   50        5.538772   0.000000
   51        5.774352   0.000000
   52        5.775017   0.000000
   53        6.087700   0.000000
   54        6.089542   0.000000
   55        6.118124   0.000000
   56        6.122804   0.000000
   57        6.561709   0.000000
   58        6.565700   0.000000
   59        6.954935   0.000000
   60        6.962482   0.000000
   61        7.027805   0.000000
   62        7.031339   0.000000
   63        7.330887   0.000000
   64        7.334753   0.000000
   65        7.397970   0.000000
   66        7.400073   0.000000
   67        7.784526   0.000000
   68        7.796455   0.000000
   69        8.133637   0.000000
   70        8.135676   0.000000
   71        8.480087   0.000000
   72        8.483105   0.000000
   73        8.841966   0.000000
   74        8.843123   0.000000
   75        9.120719   0.000000
   76        9.133253   0.000000
   77        9.558531   0.000000
   78        9.568481   0.000000
   79        9.690116   0.000000
   80        9.692153   0.000000
   81        9.965310   0.000000
   82        9.974134   0.000000
   83       10.100680   0.000000
   84       10.107457   0.000000
   85       10.591732   0.000000
   86       10.612388   0.000000
   87       10.677832   0.000000
   88       10.687619   0.000000
   89       10.810858   0.000000
   90       10.831605   0.000000
   91       10.976105   0.000000
   92       10.977814   0.000000
   93       11.094449   0.000000
   94       11.094805   0.000000
   95       11.522083   0.000000
   96       11.524125   0.000000
   97       11.554131   0.000000
   98       11.559109   0.000000
   99       11.581613   0.000000
  100       11.581744   0.000000
  101       11.729149   0.000000
  102       11.736226   0.000000
  103       11.785361   0.000000
  104       11.787445   0.000000
  105       11.886296   0.000000
  106       11.911660   0.000000
  107       11.998396   0.000000
  108       11.998503   0.000000
  109       12.047936   0.000000
  110       12.048870   0.000000
  111       12.269576   0.000000
  112       12.269664   0.000000
  113       12.436434   0.000000
  114       12.436774   0.000000
  115       12.454497   0.000000
  116       12.456976   0.000000
  117       12.530968   0.000000
  118       12.532644   0.000000
  119       12.606339   0.000000
  120       12.606434   0.000000
  121       12.664771   0.000000
  122       12.667440   0.000000
  123       12.712178   0.000000
  124       12.713474   0.000000
  125       12.807044   0.000000
  126       12.809753   0.000000
  127       12.855296   0.000000
  128       12.860057   0.000000
  129       13.185009   0.000000
  130       13.185458   0.000000
  131       13.303701   0.000000
  132       13.304657   0.000000
  133       13.510019   0.000000
  134       13.510765   0.000000
  135       13.569502   0.000000
  136       13.586004   0.000000
  137       13.703029   0.000000
  138       13.703704   0.000000
  139       13.707076   0.000000
  140       13.708765   0.000000
  141       14.052585   0.000000
  142       14.063171   0.000000
  143       14.080967   0.000000
  144       14.126605   0.000000
 
  0.4700000E+00  0.0000000E+00  0.0000000E+00  0.4901961E-02
    1      -15.798549   1.000000
    2      -15.798222   1.000000
    3      -15.575525   1.000000
    4      -15.573936   1.000000
    5      -11.177666   1.000000
    6      -11.175601   1.000000
    7      -10.894842   1.000000
    8      -10.894831   1.000000
    9       -6.607514   1.000000
   10       -6.607007   1.000000
   11       -6.535834   1.000000
   12       -6.531078   1.000000
   13       -5.484516   1.000000
   14       -5.484418   1.000000
   15       -5.436384   1.000000
   16       -5.429504   1.000000
   17       -4.346407   1.000000
   18       -4.333239   1.000000
   19       -4.304788   1.000000
   20       -4.288731   1.000000
   21       -1.496499   0.000000
   22       -1.457713   0.000000
   23       -1.299520   0.000000
   24       -1.278024   0.000000
   25       -0.484198   0.000000
   26       -0.472828   0.000000
   27       -0.207019   0.000000
   28       -0.196242   0.000000
   29        0.459682   0.000000
   30        0.477187   0.000000
   31        0.879803   0.000000
   32        0.899918   0.000000
   33        3.533735   0.000000
   34        3.534198   0.000000
   35        3.653947   0.000000
   36        3.655704   0.000000
   37        4.288178   0.000000
   38        4.288243   0.000000
   39        4.345190   0.000000
   40        4.345721   0.000000
   41        4.671291   0.000000
   42        4.672231   0.000000
   43        4.926030   0.000000
   44        4.927042   0.000000
   45        5.090663   0.000000
   46        5.091077   0.000000
   47        5.230695   0.000000
   48        5.232130   0.000000
   49        5.490544   0.000000
   50        5.491351   0.000000
   51        5.710994   0.000000
   52        5.711153   0.000000
   53        6.082512   0.000000
   54        6.084272   0.000000
   55        6.217589   0.000000
   56        6.222657   0.000000
   57        6.470252   0.000000
   58        6.472986   0.000000
   59        6.850466   0.000000
   60        6.856554   0.000000
   61        7.088332   0.000000
   62        7.092338   0.000000
   63        7.322328   0.000000
   64        7.323931   0.000000
   65        7.479538   0.000000
   66        7.481519   0.000000
   67        7.896820   0.000000
   68        7.907915   0.000000
   69        8.043537   0.000000
   70        8.044056   0.000000
   71        8.421389   0.000000
   72        8.423729   0.000000
   73        8.935235   0.000000
   74        8.936947   0.000000
   75        9.221512   0.000000
   76        9.236703   0.000000
   77        9.582370   0.000000
   78        9.584745   0.000000
   79        9.614693   0.000000
   80        9.628830   0.000000
   81        9.971481   0.000000
   82        9.974306   0.000000
   83       10.072083   0.000000
   84       10.077525   0.000000
   85       10.602651   0.000000
   86       10.629759   0.000000
   87       10.663494   0.000000
   88       10.672280   0.000000
   89       10.801081   0.000000
   90       10.818861   0.000000
   91       11.058539   0.000000
   92       11.062635   0.000000
   93       11.118820   0.000000
   94       11.119120   0.000000
   95       11.535749   0.000000
   96       11.540275   0.000000
   97       11.587705   0.000000
   98       11.599906   0.000000
   99       11.677795   0.000000
  100       11.678499   0.000000
  101       11.735028   0.000000
  102       11.738697   0.000000
  103       11.815183   0.000000
  104       11.815856   0.000000
  105       11.849679   0.000000
  106       11.865846   0.000000
  107       11.941342   0.000000
  108       11.941998   0.000000
  109       12.071544   0.000000
  110       12.072290   0.000000
  111       12.263303   0.000000
  112       12.263434   0.000000
  113       12.371079   0.000000
  114       12.372174   0.000000
  115       12.383576   0.000000
  116       12.383777   0.000000
  117       12.468873   0.000000
  118       12.470809   0.000000
  119       12.589746   0.000000
  120       12.590322   0.000000
  121       12.662880   0.000000
  122       12.663050   0.000000
  123       12.755591   0.000000
  124       12.763800   0.000000
  125       12.768866   0.000000
  126       12.769957   0.000000
  127       12.903078   0.000000
  128       12.904235   0.000000
  129       13.162554   0.000000
  130       13.163660   0.000000
  131       13.280114   0.000000
  132       13.280716   0.000000
  133       13.394664   0.000000
  134       13.395213   0.000000
  135       13.521445   0.000000
  136       13.532326   0.000000
  137       13.605201   0.000000
  138       13.606961   0.000000
  139       13.638331   0.000000
  140       13.638753   0.000000
  141       14.111065   0.000000
  142       14.151528   0.000000
  143       14.189721   0.000000
  144       14.247217   0.000000
 
  0.4800000E+00  0.0000000E+00  0.0000000E+00  0.4901961E-02
    1      -15.758072   1.000000
    2      -15.757556   1.000000
    3      -15.608917   1.000000
    4      -15.607556   1.000000
    5      -11.138942   1.000000
    6      -11.137239   1.000000
    7      -10.949996   1.000000
    8      -10.949667   1.000000
    9       -6.589064   1.000000
   10       -6.588589   1.000000
   11       -6.540562   1.000000
   12       -6.536521   1.000000
   13       -5.473248   1.000000
   14       -5.471684   1.000000
   15       -5.442181   1.000000
   16       -5.435853   1.000000
   17       -4.345164   1.000000
   18       -4.330917   1.000000
   19       -4.317883   1.000000
   20       -4.301747   1.000000
   21       -1.470747   0.000000
   22       -1.434925   0.000000
   23       -1.339671   0.000000
   24       -1.315507   0.000000
   25       -0.451399   0.000000
   26       -0.444017   0.000000
   27       -0.265452   0.000000
   28       -0.257878   0.000000
   29        0.528300   0.000000
   30        0.546386   0.000000
   31        0.809184   0.000000
   32        0.828913   0.000000
   33        3.579041   0.000000
   34        3.579197   0.000000
   35        3.663517   0.000000
   36        3.664986   0.000000
   37        4.331838   0.000000
   38        4.331874   0.000000
   39        4.413219   0.000000
   40        4.413989   0.000000
   41        4.644743   0.000000
   42        4.645040   0.000000
   43        4.875856   0.000000
   44        4.876646   0.000000
   45        5.112609   0.000000
   46        5.112978   0.000000
   47        5.216664   0.000000
   48        5.218612   0.000000
   49        5.466871   0.000000
   50        5.467719   0.000000
   51        5.638633   0.000000
   52        5.639396   0.000000
   53        6.108195   0.000000
   54        6.110061   0.000000
   55        6.315446   0.000000
   56        6.322432   0.000000
   57        6.385153   0.000000
   58        6.385496   0.000000
   59        6.743575   0.000000
   60        6.748966   0.000000
   61        7.145542   0.000000
   62        7.149194   0.000000
   63        7.305057   0.000000
   64        7.305074   0.000000
   65        7.565385   0.000000
   66        7.567540   0.000000
   67        7.923238   0.000000
   68        7.929676   0.000000
   69        8.028316   0.000000
   70        8.030956   0.000000
   71        8.354369   0.000000
   72        8.355678   0.000000
   73        9.035182   0.000000
   74        9.037193   0.000000
   75        9.321543   0.000000
   76        9.337153   0.000000
   77        9.481942   0.000000
   78        9.487590   0.000000
   79        9.644925   0.000000
   80        9.664030   0.000000
   81        9.949574   0.000000
   82        9.950761   0.000000
   83       10.038659   0.000000
   84       10.042489   0.000000
   85       10.624772   0.000000
   86       10.646570   0.000000
   87       10.646862   0.000000
   88       10.655800   0.000000
   89       10.835378   0.000000
   90       10.841597   0.000000
   91       11.110863   0.000000
   92       11.117354   0.000000
   93       11.159452   0.000000
   94       11.161658   0.000000
   95       11.492239   0.000000
   96       11.497920   0.000000
   97       11.573847   0.000000
   98       11.591026   0.000000
   99       11.719432   0.000000
  100       11.720229   0.000000
  101       11.775673   0.000000
  102       11.776483   0.000000
  103       11.852329   0.000000
  104       11.852632   0.000000
  105       11.885005   0.000000
  106       11.891298   0.000000
  107       11.943098   0.000000
  108       11.943980   0.000000
  109       12.079307   0.000000
  110       12.079646   0.000000
  111       12.215462   0.000000
  112       12.216263   0.000000
  113       12.281552   0.000000
  114       12.282137   0.000000
  115       12.292053   0.000000
  116       12.292390   0.000000
  117       12.466806   0.000000
  118       12.467614   0.000000
  119       12.594505   0.000000
  120       12.595819   0.000000
  121       12.621431   0.000000
  122       12.621828   0.000000
  123       12.724197   0.000000
  124       12.729895   0.000000
  125       12.854910   0.000000
  126       12.855209   0.000000
  127       12.971454   0.000000
  128       12.973700   0.000000
  129       13.178872   0.000000
  130       13.180158   0.000000
  131       13.246708   0.000000
  132       13.247617   0.000000
  133       13.282198   0.000000
  134       13.282517   0.000000
  135       13.463123   0.000000
  136       13.465814   0.000000
  137       13.523384   0.000000
  138       13.529210   0.000000
  139       13.576672   0.000000
  140       13.577201   0.000000
  141       14.185643   0.000000
  142       14.215488   0.000000
  143       14.275328   0.000000
  144       14.348362   0.000000
 
  0.4900000E+00  0.0000000E+00  0.0000000E+00  0.4901961E-02
    1      -15.718726   1.000000
    2      -15.718010   1.000000
    3      -15.644006   1.000000
    4      -15.642867   1.000000
    5      -11.096704   1.000000
    6      -11.095357   1.000000
    7      -11.002112   1.000000
    8      -11.001454   1.000000
    9       -6.573090   1.000000
   10       -6.571652   1.000000
   11       -6.548516   1.000000
   12       -6.545279   1.000000
   13       -5.463719   1.000000
   14       -5.460642   1.000000
   15       -5.448483   1.000000
   16       -5.442989   1.000000
   17       -4.341866   1.000000
   18       -4.328372   1.000000
   19       -4.326783   1.000000
   20       -4.312355   1.000000
   21       -1.442277   0.000000
   22       -1.409447   0.000000
   23       -1.376819   0.000000
   24       -1.349856   0.000000
   25       -0.411930   0.000000
   26       -0.408488   0.000000
   27       -0.318788   0.000000
   28       -0.314700   0.000000
   29        0.597827   0.000000
   30        0.616377   0.000000
   31        0.738500   0.000000
   32        0.757847   0.000000
   33        3.616310   0.000000
   34        3.616529   0.000000
   35        3.659926   0.000000
   36        3.661007   0.000000
   37        4.377066   0.000000
   38        4.377163   0.000000
   39        4.439462   0.000000
   40        4.440216   0.000000
   41        4.657708   0.000000
   42        4.657751   0.000000
   43        4.796852   0.000000
   44        4.797297   0.000000
   45        5.151628   0.000000
   46        5.152943   0.000000
   47        5.201403   0.000000
   48        5.203572   0.000000
   49        5.472366   0.000000
   50        5.473435   0.000000
   51        5.567540   0.000000
   52        5.568672   0.000000
   53        6.156214   0.000000
   54        6.158366   0.000000
   55        6.293557   0.000000
   56        6.297248   0.000000
   57        6.427167   0.000000
   58        6.430533   0.000000
   59        6.636645   0.000000
   60        6.641526   0.000000
   61        7.196974   0.000000
   62        7.200017   0.000000
   63        7.277499   0.000000
   64        7.278756   0.000000
   65        7.654282   0.000000
   66        7.656697   0.000000
   67        7.837473   0.000000
   68        7.841027   0.000000
   69        8.115728   0.000000
   70        8.118775   0.000000
   71        8.281681   0.000000
   72        8.281725   0.000000
   73        9.138125   0.000000
   74        9.140281   0.000000
   75        9.336327   0.000000
   76        9.339726   0.000000
   77        9.468170   0.000000
   78        9.488875   0.000000
   79        9.625732   0.000000
   80        9.649324   0.000000
   81        9.940572   0.000000
   82        9.942383   0.000000
   83       10.001079   0.000000
   84       10.002939   0.000000
   85       10.632722   0.000000
   86       10.636255   0.000000
   87       10.642954   0.000000
   88       10.647671   0.000000
   89       10.910151   0.000000
   90       10.916681   0.000000
   91       11.077851   0.000000
   92       11.087790   0.000000
   93       11.244120   0.000000
   94       11.248554   0.000000
   95       11.418285   0.000000
   96       11.423966   0.000000
   97       11.571993   0.000000
   98       11.585317   0.000000
   99       11.664937   0.000000
  100       11.668115   0.000000
  101       11.866410   0.000000
  102       11.866989   0.000000
  103       11.901185   0.000000
  104       11.902016   0.000000
  105       11.954869   0.000000
  106       11.956991   0.000000
  107       11.984850   0.000000
  108       11.986159   0.000000
  109       12.072095   0.000000
  110       12.072134   0.000000
  111       12.136840   0.000000
  112       12.137963   0.000000
  113       12.199491   0.000000
  114       12.200032   0.000000
  115       12.204300   0.000000
  116       12.205435   0.000000
  117       12.499679   0.000000
  118       12.500085   0.000000
  119       12.577597   0.000000
  120       12.577942   0.000000
  121       12.612359   0.000000
  122       12.614049   0.000000
  123       12.684718   0.000000
  124       12.688003   0.000000
  125       12.952144   0.000000
  126       12.952278   0.000000
  127       13.046230   0.000000
  128       13.049977   0.000000
  129       13.166718   0.000000
  130       13.167560   0.000000
  131       13.195698   0.000000
  132       13.198779   0.000000
  133       13.235551   0.000000
  134       13.236608   0.000000
  135       13.386262   0.000000
  136       13.387002   0.000000
  137       13.487541   0.000000
  138       13.493074   0.000000
  139       13.526333   0.000000
  140       13.527687   0.000000
  141       14.260899   0.000000
  142       14.281664   0.000000
  143       14.332509   0.000000
  144       14.475888   0.000000
 
  0.5000000E+00  0.0000000E+00  0.0000000E+00  0.4901961E-02
    1      -15.680659   1.000000
    2      -15.680659   1.000000
    3      -15.679726   1.000000
    4      -15.679726   1.000000
    5      -11.051061   1.000000
    6      -11.051061   1.000000
    7      -11.050053   1.000000
    8      -11.050053   1.000000
    9       -6.559458   1.000000
   10       -6.559458   1.000000
   11       -6.557093   1.000000
   12       -6.557093   1.000000
   13       -5.455563   1.000000
   14       -5.455563   1.000000
   15       -5.451163   1.000000
   16       -5.451163   1.000000
   17       -4.336321   1.000000
   18       -4.336321   1.000000
   19       -4.320655   1.000000
   20       -4.320655   1.000000
   21       -1.410997   0.000000
   22       -1.410997   0.000000
   23       -1.381134   0.000000
   24       -1.381134   0.000000
   25       -0.366624   0.000000
   26       -0.366624   0.000000
   27       -0.366198   0.000000
   28       -0.366198   0.000000
   29        0.667975   0.000000
   30        0.667976   0.000000
   31        0.686935   0.000000
   32        0.686935   0.000000
   33        3.643752   0.000000
   34        3.643757   0.000000
   35        3.644426   0.000000
   36        3.644431   0.000000
   37        4.418167   0.000000
   38        4.418206   0.000000
   39        4.418561   0.000000
   40        4.418600   0.000000
   41        4.717568   0.000000
   42        4.717601   0.000000
   43        4.717742   0.000000
   44        4.717765   0.000000
   45        5.181434   0.000000
   46        5.181461   0.000000
   47        5.183464   0.000000
   48        5.183502   0.000000
   49        5.508303   0.000000
   50        5.508326   0.000000
   51        5.509593   0.000000
   52        5.509622   0.000000
   53        6.219794   0.000000
   54        6.219819   0.000000
   55        6.222405   0.000000
   56        6.222428   0.000000
   57        6.530708   0.000000
   58        6.530725   0.000000
   59        6.535074   0.000000
   60        6.535093   0.000000
   61        7.241265   0.000000
   62        7.241285   0.000000
   63        7.243522   0.000000
   64        7.243542   0.000000
   65        7.745396   0.000000
   66        7.745418   0.000000
   67        7.748213   0.000000
   68        7.748235   0.000000
   69        8.201877   0.000000
   70        8.201899   0.000000
   71        8.203414   0.000000
   72        8.203435   0.000000
   73        9.241617   0.000000
   74        9.241624   0.000000
   75        9.243825   0.000000
   76        9.243832   0.000000
   77        9.555818   0.000000
   78        9.555831   0.000000
   79        9.579676   0.000000
   80        9.579688   0.000000
   81        9.964149   0.000000
   82        9.964166   0.000000
   83        9.964534   0.000000
   84        9.964563   0.000000
   85       10.632826   0.000000
   86       10.632834   0.000000
   87       10.642079   0.000000
   88       10.642087   0.000000
   89       11.000219   0.000000
   90       11.000224   0.000000
   91       11.011690   0.000000
   92       11.011696   0.000000
   93       11.332847   0.000000
   94       11.332865   0.000000
   95       11.338116   0.000000
   96       11.338133   0.000000
   97       11.607330   0.000000
   98       11.607348   0.000000
   99       11.614949   0.000000
  100       11.614968   0.000000
  101       11.920892   0.000000
  102       11.920921   0.000000
  103       11.921370   0.000000
  104       11.921415   0.000000
  105       12.008934   0.000000
  106       12.008969   0.000000
  107       12.009286   0.000000
  108       12.009314   0.000000
  109       12.074910   0.000000
  110       12.074917   0.000000
  111       12.075457   0.000000
  112       12.075466   0.000000
  113       12.156741   0.000000
  114       12.156753   0.000000
  115       12.157993   0.000000
  116       12.158001   0.000000
  117       12.538951   0.000000
  118       12.539005   0.000000
  119       12.539820   0.000000
  120       12.539868   0.000000
  121       12.642929   0.000000
  122       12.642946   0.000000
  123       12.645099   0.000000
  124       12.645113   0.000000
  125       13.052580   0.000000
  126       13.052594   0.000000
  127       13.052978   0.000000
  128       13.053005   0.000000
  129       13.131410   0.000000
  130       13.131435   0.000000
  131       13.134715   0.000000
  132       13.134728   0.000000
  133       13.305342   0.000000
  134       13.305422   0.000000
  135       13.305507   0.000000
  136       13.305617   0.000000
  137       13.493714   0.000000
  138       13.493712   0.000000
  139       13.496572   0.000000
  140       13.496640   0.000000
  141       14.306864   0.000000
  142       14.319007   0.000000
  143       14.342696   0.000000
  144       14.526823   0.000000
 
  0.5000000E+00  0.0000000E+00  0.0000000E+00  0.4901961E-02
    1      -15.680659   1.000000
    2      -15.680659   1.000000
    3      -15.679726   1.000000
    4      -15.679726   1.000000
    5      -11.051061   1.000000
    6      -11.051061   1.000000
    7      -11.050053   1.000000
    8      -11.050053   1.000000
    9       -6.559458   1.000000
   10       -6.559458   1.000000
   11       -6.557093   1.000000
   12       -6.557093   1.000000
   13       -5.455563   1.000000
   14       -5.455563   1.000000
   15       -5.451163   1.000000
   16       -5.451163   1.000000
   17       -4.336321   1.000000
   18       -4.336321   1.000000
   19       -4.320655   1.000000
   20       -4.320655   1.000000
   21       -1.410997   0.000000
   22       -1.410997   0.000000
   23       -1.381134   0.000000
   24       -1.381134   0.000000
   25       -0.366624   0.000000
   26       -0.366624   0.000000
   27       -0.366198   0.000000
   28       -0.366198   0.000000
   29        0.667975   0.000000
   30        0.667976   0.000000
   31        0.686935   0.000000
   32        0.686935   0.000000
   33        3.643752   0.000000
   34        3.643757   0.000000
   35        3.644426   0.000000
   36        3.644431   0.000000
   37        4.418167   0.000000
   38        4.418206   0.000000
   39        4.418561   0.000000
   40        4.418600   0.000000
   41        4.717568   0.000000
   42        4.717601   0.000000
   43        4.717742   0.000000
   44        4.717765   0.000000
   45        5.181434   0.000000
   46        5.181461   0.000000
   47        5.183464   0.000000
   48        5.183502   0.000000
   49        5.508303   0.000000
   50        5.508326   0.000000
   51        5.509593   0.000000
   52        5.509622   0.000000
   53        6.219794   0.000000
   54        6.219819   0.000000
   55        6.222405   0.000000
   56        6.222428   0.000000
   57        6.530708   0.000000
   58        6.530725   0.000000
   59        6.535074   0.000000
   60        6.535093   0.000000
   61        7.241265   0.000000
   62        7.241285   0.000000
   63        7.243522   0.000000
   64        7.243542   0.000000
   65        7.745396   0.000000
   66        7.745418   0.000000
   67        7.748213   0.000000
   68        7.748235   0.000000
   69        8.201877   0.000000
   70        8.201899   0.000000
   71        8.203414   0.000000
   72        8.203435   0.000000
   73        9.241617   0.000000
   74        9.241624   0.000000
   75        9.243825   0.000000
   76        9.243832   0.000000
   77        9.555818   0.000000
   78        9.555831   0.000000
   79        9.579676   0.000000
   80        9.579688   0.000000
   81        9.964149   0.000000
   82        9.964166   0.000000
   83        9.964534   0.000000
   84        9.964563   0.000000
   85       10.632826   0.000000
   86       10.632834   0.000000
   87       10.642079   0.000000
   88       10.642087   0.000000
   89       11.000219   0.000000
   90       11.000225   0.000000
   91       11.011690   0.000000
   92       11.011696   0.000000
   93       11.332847   0.000000
   94       11.332865   0.000000
   95       11.338116   0.000000
   96       11.338133   0.000000
   97       11.607330   0.000000
   98       11.607349   0.000000
   99       11.614949   0.000000
  100       11.614968   0.000000
  101       11.920893   0.000000
  102       11.920922   0.000000
  103       11.921371   0.000000
  104       11.921415   0.000000
  105       12.008934   0.000000
  106       12.008969   0.000000
  107       12.009287   0.000000
  108       12.009314   0.000000
  109       12.074909   0.000000
  110       12.074915   0.000000
  111       12.075455   0.000000
  112       12.075465   0.000000
  113       12.156740   0.000000
  114       12.156751   0.000000
  115       12.157990   0.000000
  116       12.158000   0.000000
  117       12.538947   0.000000
  118       12.538996   0.000000
  119       12.539816   0.000000
  120       12.539865   0.000000
  121       12.642929   0.000000
  122       12.642945   0.000000
  123       12.645097   0.000000
  124       12.645112   0.000000
  125       13.052568   0.000000
  126       13.052574   0.000000
  127       13.052968   0.000000
  128       13.052975   0.000000
  129       13.131384   0.000000
  130       13.131419   0.000000
  131       13.134697   0.000000
  132       13.134729   0.000000
  133       13.305333   0.000000
  134       13.305411   0.000000
  135       13.305506   0.000000
  136       13.305588   0.000000
  137       13.493699   0.000000
  138       13.493736   0.000000
  139       13.496610   0.000000
  140       13.496649   0.000000
  141       14.311687   0.000000
  142       14.323446   0.000000
  143       14.335041   0.000000
  144       14.358012   0.000000
 
  0.5000000E+00  0.1000000E-01  0.0000000E+00  0.4901961E-02
    1      -15.680586   1.000000
    2      -15.680452   1.000000
    3      -15.679661   1.000000
    4      -15.679511   1.000000
    5      -11.050953   1.000000
    6      -11.050819   1.000000
    7      -11.049953   1.000000
    8      -11.049804   1.000000
    9       -6.561265   1.000000
   10       -6.560367   1.000000
   11       -6.559388   1.000000
   12       -6.557485   1.000000
   13       -5.457800   1.000000
   14       -5.456733   1.000000
   15       -5.454730   1.000000
   16       -5.451039   1.000000
   17       -4.337407   1.000000
   18       -4.333550   1.000000
   19       -4.320779   1.000000
   20       -4.318993   1.000000
   21       -1.414939   0.000000
   22       -1.408479   0.000000
   23       -1.382457   0.000000
   24       -1.381596   0.000000
   25       -0.363703   0.000000
   26       -0.360739   0.000000
   27       -0.360485   0.000000
   28       -0.358629   0.000000
   29        0.667473   0.000000
   30        0.668649   0.000000
   31        0.686574   0.000000
   32        0.687502   0.000000
   33        3.643197   0.000000
   34        3.643519   0.000000
   35        3.643981   0.000000
   36        3.644114   0.000000
   37        4.418411   0.000000
   38        4.418455   0.000000
   39        4.418621   0.000000
   40        4.419337   0.000000
   41        4.718191   0.000000
   42        4.718285   0.000000
   43        4.718372   0.000000
   44        4.718447   0.000000
   45        5.180416   0.000000
   46        5.180601   0.000000
   47        5.182327   0.000000
   48        5.182701   0.000000
   49        5.508783   0.000000
   50        5.509423   0.000000
   51        5.510057   0.000000
   52        5.510794   0.000000
   53        6.216569   0.000000
   54        6.217648   0.000000
   55        6.219591   0.000000
   56        6.219929   0.000000
   57        6.535792   0.000000
   58        6.536511   0.000000
   59        6.540260   0.000000
   60        6.540655   0.000000
   61        7.239565   0.000000
   62        7.239842   0.000000
   63        7.241716   0.000000
   64        7.242174   0.000000
   65        7.746224   0.000000
   66        7.747292   0.000000
   67        7.749318   0.000000
   68        7.749879   0.000000
   69        8.200639   0.000000
   70        8.200911   0.000000
   71        8.201883   0.000000
   72        8.202653   0.000000
   73        9.239548   0.000000
   74        9.244108   0.000000
   75        9.244414   0.000000
   76        9.244932   0.000000
   77        9.555308   0.000000
   78        9.559093   0.000000
   79        9.579508   0.000000
   80        9.582078   0.000000
   81        9.963677   0.000000
   82        9.963972   0.000000
   83        9.964217   0.000000
   84        9.965117   0.000000
   85       10.631414   0.000000
   86       10.631979   0.000000
   87       10.640943   0.000000
   88       10.641608   0.000000
   89       10.992025   0.000000
   90       10.993202   0.000000
   91       11.002422   0.000000
   92       11.004082   0.000000
   93       11.300592   0.000000
   94       11.306772   0.000000
   95       11.308135   0.000000
   96       11.312302   0.000000
   97       11.634526   0.000000
   98       11.640449   0.000000
   99       11.643362   0.000000
  100       11.644855   0.000000
  101       11.840925   0.000000
  102       11.841551   0.000000
  103       11.842981   0.000000
  104       11.844496   0.000000
  105       11.978252   0.000000
  106       11.980407   0.000000
  107       11.981392   0.000000
  108       11.981512   0.000000
  109       12.090083   0.000000
  110       12.090442   0.000000
  111       12.092246   0.000000
  112       12.093165   0.000000
  113       12.251760   0.000000
  114       12.252963   0.000000
  115       12.253178   0.000000
  116       12.253770   0.000000
  117       12.497466   0.000000
  118       12.500787   0.000000
  119       12.502746   0.000000
  120       12.504482   0.000000
  121       12.675791   0.000000
  122       12.679505   0.000000
  123       12.680750   0.000000
  124       12.680987   0.000000
  125       13.013771   0.000000
  126       13.014011   0.000000
  127       13.015000   0.000000
  128       13.016378   0.000000
  129       13.104662   0.000000
  130       13.106124   0.000000
  131       13.107185   0.000000
  132       13.108265   0.000000
  133       13.358106   0.000000
  134       13.358844   0.000000
  135       13.360305   0.000000
  136       13.360849   0.000000
  137       13.513835   0.000000
  138       13.516216   0.000000
  139       13.517365   0.000000
  140       13.518473   0.000000
  141       14.275308   0.000000
  142       14.284368   0.000000
  143       14.297396   0.000000
  144       14.323295   0.000000
 
  0.5000000E+00  0.2000000E-01  0.0000000E+00  0.4901961E-02
    1      -15.680235   1.000000
    2      -15.679967   1.000000
    3      -15.679320   1.000000
    4      -15.679018   1.000000
    5      -11.050495   1.000000
    6      -11.050226   1.000000
    7      -11.049505   1.000000
    8      -11.049207   1.000000
    9       -6.565771   1.000000
   10       -6.564356   1.000000
   11       -6.563976   1.000000
   12       -6.560558   1.000000
   13       -5.463403   1.000000
   14       -5.461683   1.000000
   15       -5.461268   1.000000
   16       -5.454352   1.000000
   17       -4.336831   1.000000
   18       -4.329179   1.000000
   19       -4.319409   1.000000
   20       -4.315851   1.000000
   21       -1.420037   0.000000
   22       -1.407326   0.000000
   23       -1.385368   0.000000
   24       -1.383673   0.000000
   25       -0.349976   0.000000
   26       -0.344234   0.000000
   27       -0.343760   0.000000
   28       -0.340031   0.000000
   29        0.667137   0.000000
   30        0.669487   0.000000
   31        0.686418   0.000000
   32        0.688268   0.000000
   33        3.641840   0.000000
   34        3.642481   0.000000
   35        3.642773   0.000000
   36        3.643027   0.000000
   37        4.418982   0.000000
   38        4.419292   0.000000
   39        4.419702   0.000000
   40        4.420728   0.000000
   41        4.720091   0.000000
   42        4.720303   0.000000
   43        4.720308   0.000000
   44        4.720444   0.000000
   45        5.177588   0.000000
   46        5.177917   0.000000
   47        5.179326   0.000000
   48        5.180013   0.000000
   49        5.510841   0.000000
   50        5.511859   0.000000
   51        5.512352   0.000000
   52        5.513545   0.000000
   53        6.208653   0.000000
   54        6.210731   0.000000
   55        6.212122   0.000000
   56        6.212775   0.000000
   57        6.550939   0.000000
   58        6.552456   0.000000
   59        6.555444   0.000000
   60        6.556239   0.000000
   61        7.234668   0.000000
   62        7.235294   0.000000
   63        7.236729   0.000000
   64        7.237627   0.000000
   65        7.749707   0.000000
   66        7.751789   0.000000
   67        7.753099   0.000000
   68        7.754218   0.000000
   69        8.197396   0.000000
   70        8.197910   0.000000
   71        8.198290   0.000000
   72        8.199753   0.000000
   73        9.238231   0.000000
   74        9.245689   0.000000
   75        9.247284   0.000000
   76        9.247727   0.000000
   77        9.557594   0.000000
   78        9.564930   0.000000
   79        9.581549   0.000000
   80        9.586616   0.000000
   81        9.962541   0.000000
   82        9.963445   0.000000
   83        9.963971   0.000000
   84        9.965328   0.000000
   85       10.627442   0.000000
   86       10.628670   0.000000
   87       10.637961   0.000000
   88       10.639244   0.000000
   89       10.966734   0.000000
   90       10.968432   0.000000
   91       10.974448   0.000000
   92       10.977373   0.000000
   93       11.240715   0.000000
   94       11.250473   0.000000
   95       11.251317   0.000000
   96       11.257809   0.000000
   97       11.666461   0.000000
   98       11.671574   0.000000
   99       11.672267   0.000000
  100       11.673688   0.000000
  101       11.755042   0.000000
  102       11.755516   0.000000
  103       11.756046   0.000000
  104       11.756100   0.000000
  105       11.875082   0.000000
  106       11.879110   0.000000
  107       11.879191   0.000000
  108       11.880653   0.000000
  109       12.189498   0.000000
  110       12.190076   0.000000
  111       12.191639   0.000000
  112       12.192507   0.000000
  113       12.371530   0.000000
  114       12.374748   0.000000
  115       12.374849   0.000000
  116       12.375295   0.000000
  117       12.447365   0.000000
  118       12.448916   0.000000
  119       12.451227   0.000000
  120       12.451865   0.000000
  121       12.728365   0.000000
  122       12.731384   0.000000
  123       12.732187   0.000000
  124       12.732372   0.000000
  125       12.924306   0.000000
  126       12.925430   0.000000
  127       12.926459   0.000000
  128       12.927270   0.000000
  129       13.076405   0.000000
  130       13.079512   0.000000
  131       13.079906   0.000000
  132       13.080027   0.000000
  133       13.448479   0.000000
  134       13.449616   0.000000
  135       13.449969   0.000000
  136       13.452288   0.000000
  137       13.576283   0.000000
  138       13.579057   0.000000
  139       13.579456   0.000000
  140       13.581232   0.000000
  141       14.205858   0.000000
  142       14.216063   0.000000
  143       14.237663   0.000000
  144       14.287430   0.000000
 
  0.5000000E+00  0.3000000E-01  0.0000000E+00  0.4901961E-02
    1      -15.679604   1.000000
    2      -15.679204   1.000000
    3      -15.678698   1.000000
    4      -15.678246   1.000000
    5      -11.049688   1.000000
    6      -11.049285   1.000000
    7      -11.048710   1.000000
    8      -11.048264   1.000000
    9       -6.572939   1.000000
   10       -6.571941   1.000000
   11       -6.570261   1.000000
   12       -6.566284   1.000000
   13       -5.472257   1.000000
   14       -5.471854   1.000000
   15       -5.469083   1.000000
   16       -5.461011   1.000000
   17       -4.334718   1.000000
   18       -4.323391   1.000000
   19       -4.316687   1.000000
   20       -4.311384   1.000000
   21       -1.425732   0.000000
   22       -1.407148   0.000000
   23       -1.389332   0.000000
   24       -1.386855   0.000000
   25       -0.325825   0.000000
   26       -0.317206   0.000000
   27       -0.316565   0.000000
   28       -0.311360   0.000000
   29        0.666976   0.000000
   30        0.670493   0.000000
   31        0.686475   0.000000
   32        0.689237   0.000000
   33        3.639674   0.000000
   34        3.640619   0.000000
   35        3.640814   0.000000
   36        3.641156   0.000000
   37        4.420159   0.000000
   38        4.420843   0.000000
   39        4.421449   0.000000
   40        4.422771   0.000000
   41        4.723297   0.000000
   42        4.723546   0.000000
   43        4.723628   0.000000
   44        4.723748   0.000000
   45        5.173152   0.000000
   46        5.173568   0.000000
   47        5.174681   0.000000
   48        5.175593   0.000000
   49        5.514442   0.000000
   50        5.515479   0.000000
   51        5.516511   0.000000
   52        5.517773   0.000000
   53        6.197698   0.000000
   54        6.200648   0.000000
   55        6.201598   0.000000
   56        6.202524   0.000000
   57        6.574307   0.000000
   58        6.576744   0.000000
   59        6.578845   0.000000
   60        6.580040   0.000000
   61        7.226552   0.000000
   62        7.227665   0.000000
   63        7.228584   0.000000
   64        7.229888   0.000000
   65        7.755710   0.000000
   66        7.758694   0.000000
   67        7.759394   0.000000
   68        7.761066   0.000000
   69        8.192822   0.000000
   70        8.193341   0.000000
   71        8.193531   0.000000
   72        8.195354   0.000000
   73        9.237545   0.000000
   74        9.248292   0.000000
   75        9.250566   0.000000
   76        9.251228   0.000000
   77        9.562623   0.000000
   78        9.573073   0.000000
   79        9.585737   0.000000
   80        9.593155   0.000000
   81        9.960776   0.000000
   82        9.962368   0.000000
   83        9.963119   0.000000
   84        9.964860   0.000000
   85       10.620239   0.000000
   86       10.622319   0.000000
   87       10.632472   0.000000
   88       10.634281   0.000000
   89       10.920322   0.000000
   90       10.921764   0.000000
   91       10.924931   0.000000
   92       10.928094   0.000000
   93       11.184832   0.000000
   94       11.197162   0.000000
   95       11.198443   0.000000
   96       11.205607   0.000000
   97       11.581129   0.000000
   98       11.581482   0.000000
   99       11.581982   0.000000
  100       11.582963   0.000000
  101       11.702619   0.000000
  102       11.703959   0.000000
  103       11.705100   0.000000
  104       11.707889   0.000000
  105       11.866093   0.000000
  106       11.872632   0.000000
  107       11.874632   0.000000
  108       11.875476   0.000000
  109       12.246508   0.000000
  110       12.248365   0.000000
  111       12.248426   0.000000
  112       12.249685   0.000000
  113       12.399818   0.000000
  114       12.400929   0.000000
  115       12.401912   0.000000
  116       12.402555   0.000000
  117       12.530137   0.000000
  118       12.530795   0.000000
  119       12.531040   0.000000
  120       12.531245   0.000000
  121       12.739028   0.000000
  122       12.739302   0.000000
  123       12.740314   0.000000
  124       12.741313   0.000000
  125       12.861450   0.000000
  126       12.861873   0.000000
  127       12.861971   0.000000
  128       12.862079   0.000000
  129       13.058361   0.000000
  130       13.061543   0.000000
  131       13.061564   0.000000
  132       13.061814   0.000000
  133       13.530283   0.000000
  134       13.530649   0.000000
  135       13.533034   0.000000
  136       13.534932   0.000000
  137       13.673102   0.000000
  138       13.674872   0.000000
  139       13.675913   0.000000
  140       13.677282   0.000000
  141       14.132511   0.000000
  142       14.143511   0.000000
  143       14.150060   0.000000
  144       14.176575   0.000000
 
  0.5000000E+00  0.4000000E-01  0.0000000E+00  0.4901961E-02
    1      -15.678698   1.000000
    2      -15.678166   1.000000
    3      -15.677799   1.000000
    4      -15.677200   1.000000
    5      -11.048536   1.000000
    6      -11.048000   1.000000
    7      -11.047570   1.000000
    8      -11.046978   1.000000
    9       -6.582709   1.000000
   10       -6.582092   1.000000
   11       -6.579161   1.000000
   12       -6.574615   1.000000
   13       -5.485068   1.000000
   14       -5.484195   1.000000
   15       -5.479995   1.000000
   16       -5.470865   1.000000
   17       -4.331290   1.000000
   18       -4.316456   1.000000
   19       -4.312841   1.000000
   20       -4.305828   1.000000
   21       -1.431278   0.000000
   22       -1.407307   0.000000
   23       -1.393581   0.000000
   24       -1.390389   0.000000
   25       -0.291914   0.000000
   26       -0.280421   0.000000
   27       -0.279682   0.000000
   28       -0.273377   0.000000
   29        0.666983   0.000000
   30        0.671661   0.000000
   31        0.686745   0.000000
   32        0.690401   0.000000
   33        3.636680   0.000000
   34        3.637897   0.000000
   35        3.638107   0.000000
   36        3.638480   0.000000
   37        4.422006   0.000000
   38        4.423083   0.000000
   39        4.423876   0.000000
   40        4.425480   0.000000
   41        4.727804   0.000000
   42        4.728089   0.000000
   43        4.728245   0.000000
   44        4.728356   0.000000
   45        5.167396   0.000000
   46        5.167825   0.000000
   47        5.168692   0.000000
   48        5.169710   0.000000
   49        5.519491   0.000000
   50        5.520506   0.000000
   51        5.522114   0.000000
   52        5.523368   0.000000
   53        6.185465   0.000000
   54        6.189153   0.000000
   55        6.189744   0.000000
   56        6.190900   0.000000
   57        6.603757   0.000000
   58        6.607250   0.000000
   59        6.608375   0.000000
   60        6.609949   0.000000
   61        7.215206   0.000000
   62        7.217001   0.000000
   63        7.217330   0.000000
   64        7.218972   0.000000
   65        7.763949   0.000000
   66        7.767659   0.000000
   67        7.767900   0.000000
   68        7.770107   0.000000
   69        8.187934   0.000000
   70        8.188088   0.000000
   71        8.188772   0.000000
   72        8.190457   0.000000
   73        9.237195   0.000000
   74        9.251451   0.000000
   75        9.254294   0.000000
   76        9.254483   0.000000
   77        9.570152   0.000000
   78        9.583133   0.000000
   79        9.591887   0.000000
   80        9.601436   0.000000
   81        9.957900   0.000000
   82        9.960219   0.000000
   83        9.961127   0.000000
   84        9.963178   0.000000
   85       10.608521   0.000000
   86       10.611704   0.000000
   87       10.623139   0.000000
   88       10.625326   0.000000
   89       10.853512   0.000000
   90       10.854489   0.000000
   91       10.856216   0.000000
   92       10.858508   0.000000
   93       11.141855   0.000000
   94       11.155495   0.000000
   95       11.157003   0.000000
   96       11.163417   0.000000
   97       11.461180   0.000000
   98       11.462523   0.000000
   99       11.463327   0.000000
  100       11.463727   0.000000
  101       11.608343   0.000000
  102       11.610245   0.000000
  103       11.611737   0.000000
  104       11.614336   0.000000
  105       11.934675   0.000000
  106       11.943083   0.000000
  107       11.943627   0.000000
  108       11.944122   0.000000
  109       12.212675   0.000000
  110       12.217173   0.000000
  111       12.218375   0.000000
  112       12.220663   0.000000
  113       12.459205   0.000000
  114       12.463738   0.000000
  115       12.463914   0.000000
  116       12.464877   0.000000
  117       12.623679   0.000000
  118       12.624714   0.000000
  119       12.625994   0.000000
  120       12.626242   0.000000
  121       12.698873   0.000000
  122       12.699198   0.000000
  123       12.699713   0.000000
  124       12.700193   0.000000
  125       12.870759   0.000000
  126       12.870981   0.000000
  127       12.871117   0.000000
  128       12.871383   0.000000
  129       13.061110   0.000000
  130       13.062706   0.000000
  131       13.063303   0.000000
  132       13.063391   0.000000
  133       13.595878   0.000000
  134       13.597530   0.000000
  135       13.602078   0.000000
  136       13.603517   0.000000
  137       13.784288   0.000000
  138       13.786387   0.000000
  139       13.787469   0.000000
  140       13.790697   0.000000
  141       14.068676   0.000000
  142       14.077196   0.000000
  143       14.097246   0.000000
  144       14.122987   0.000000
 
  0.5000000E+00  0.5000000E-01  0.0000000E+00  0.4901961E-02
    1      -15.677518   1.000000
    2      -15.676859   1.000000
    3      -15.676622   1.000000
    4      -15.675880   1.000000
    5      -11.047043   1.000000
    6      -11.046379   1.000000
    7      -11.046089   1.000000
    8      -11.045354   1.000000
    9       -6.595000   1.000000
   10       -6.594721   1.000000
   11       -6.590599   1.000000
   12       -6.585477   1.000000
   13       -5.501082   1.000000
   14       -5.499003   1.000000
   15       -5.493796   1.000000
   16       -5.483706   1.000000
   17       -4.326838   1.000000
   18       -4.308704   1.000000
   19       -4.308155   1.000000
   20       -4.299479   1.000000
   21       -1.435829   0.000000
   22       -1.407003   0.000000
   23       -1.397222   0.000000
   24       -1.393385   0.000000
   25       -0.249077   0.000000
   26       -0.234781   0.000000
   27       -0.234024   0.000000
   28       -0.226941   0.000000
   29        0.667159   0.000000
   30        0.672987   0.000000
   31        0.687233   0.000000
   32        0.691757   0.000000
   33        3.632838   0.000000
   34        3.634323   0.000000
   35        3.634609   0.000000
   36        3.634978   0.000000
   37        4.424550   0.000000
   38        4.426042   0.000000
   39        4.427008   0.000000
   40        4.428880   0.000000
   41        4.733606   0.000000
   42        4.733930   0.000000
   43        4.734144   0.000000
   44        4.734263   0.000000
   45        5.160675   0.000000
   46        5.161040   0.000000
   47        5.161727   0.000000
   48        5.162718   0.000000
   49        5.525873   0.000000
   50        5.526879   0.000000
   51        5.528996   0.000000
   52        5.530205   0.000000
   53        6.173385   0.000000
   54        6.177684   0.000000
   55        6.177978   0.000000
   56        6.179320   0.000000
   57        6.637323   0.000000
   58        6.641992   0.000000
   59        6.642125   0.000000
   60        6.644001   0.000000
   61        7.200689   0.000000
   62        7.203037   0.000000
   63        7.203458   0.000000
   64        7.204956   0.000000
   65        7.774013   0.000000
   66        7.778113   0.000000
   67        7.778291   0.000000
   68        7.780893   0.000000
   69        8.183846   0.000000
   70        8.184094   0.000000
   71        8.184942   0.000000
   72        8.186394   0.000000
   73        9.236789   0.000000
   74        9.254599   0.000000
   75        9.257037   0.000000
   76        9.257907   0.000000
   77        9.579766   0.000000
   78        9.594623   0.000000
   79        9.599700   0.000000
   80        9.611086   0.000000
   81        9.953225   0.000000
   82        9.956292   0.000000
   83        9.957255   0.000000
   84        9.959544   0.000000
   85       10.590276   0.000000
   86       10.594752   0.000000
   87       10.607701   0.000000
   88       10.610036   0.000000
   89       10.774516   0.000000
   90       10.775272   0.000000
   91       10.776740   0.000000
   92       10.777679   0.000000
   93       11.106206   0.000000
   94       11.118911   0.000000
   95       11.120615   0.000000
   96       11.125409   0.000000
   97       11.338368   0.000000
   98       11.340722   0.000000
   99       11.340854   0.000000
  100       11.342013   0.000000
  101       11.518537   0.000000
  102       11.520751   0.000000
  103       11.521944   0.000000
  104       11.523757   0.000000
  105       11.982941   0.000000
  106       11.988504   0.000000
  107       11.989476   0.000000
  108       11.990195   0.000000
  109       12.176737   0.000000
  110       12.181445   0.000000
  111       12.181757   0.000000
  112       12.181807   0.000000
  113       12.492651   0.000000
  114       12.495623   0.000000
  115       12.496377   0.000000
  116       12.498021   0.000000
  117       12.601834   0.000000
  118       12.602890   0.000000
  119       12.603297   0.000000
  120       12.603646   0.000000
  121       12.795165   0.000000
  122       12.795748   0.000000
  123       12.795834   0.000000
  124       12.796224   0.000000
  125       12.894843   0.000000
  126       12.895167   0.000000
  127       12.895312   0.000000
  128       12.896016   0.000000
  129       13.095326   0.000000
  130       13.096643   0.000000
  131       13.097110   0.000000
  132       13.097179   0.000000
  133       13.638839   0.000000
  134       13.643450   0.000000
  135       13.645726   0.000000
  136       13.650137   0.000000
  137       13.881333   0.000000
  138       13.882958   0.000000
  139       13.885855   0.000000
  140       13.905905   0.000000
  141       14.035876   0.000000
  142       14.043855   0.000000
  143       14.063091   0.000000
  144       14.118813   0.000000
 
  0.5000000E+00  0.6000000E-01  0.0000000E+00  0.4901961E-02
    1      -15.676071   1.000000
    2      -15.675305   1.000000
    3      -15.675162   1.000000
    4      -15.674296   1.000000
    5      -11.045217   1.000000
    6      -11.044438   1.000000
    7      -11.044266   1.000000
    8      -11.043401   1.000000
    9       -6.609726   1.000000
   10       -6.609711   1.000000
   11       -6.604479   1.000000
   12       -6.598781   1.000000
   13       -5.519641   1.000000
   14       -5.516447   1.000000
   15       -5.510251   1.000000
   16       -5.499300   1.000000
   17       -4.321701   1.000000
   18       -4.302984   1.000000
   19       -4.300474   1.000000
   20       -4.292673   1.000000
   21       -1.438543   0.000000
   22       -1.405385   0.000000
   23       -1.399345   0.000000
   24       -1.394935   0.000000
   25       -0.198230   0.000000
   26       -0.181245   0.000000
   27       -0.180550   0.000000
   28       -0.172945   0.000000
   29        0.667500   0.000000
   30        0.674458   0.000000
   31        0.687940   0.000000
   32        0.693295   0.000000
   33        3.628121   0.000000
   34        3.629903   0.000000
   35        3.630266   0.000000
   36        3.630620   0.000000
   37        4.427825   0.000000
   38        4.429752   0.000000
   39        4.430875   0.000000
   40        4.433002   0.000000
   41        4.740692   0.000000
   42        4.741058   0.000000
   43        4.741312   0.000000
   44        4.741460   0.000000
   45        5.153381   0.000000
   46        5.153616   0.000000
   47        5.154190   0.000000
   48        5.155018   0.000000
   49        5.533458   0.000000
   50        5.534478   0.000000
   51        5.537020   0.000000
   52        5.538156   0.000000
   53        6.162448   0.000000
   54        6.167242   0.000000
   55        6.167283   0.000000
   56        6.168775   0.000000
   57        6.673270   0.000000
   58        6.678324   0.000000
   59        6.679320   0.000000
   60        6.680442   0.000000
   61        7.183174   0.000000
   62        7.186013   0.000000
   63        7.187189   0.000000
   64        7.188023   0.000000
   65        7.785359   0.000000
   66        7.789591   0.000000
   67        7.789883   0.000000
   68        7.792845   0.000000
   69        8.182174   0.000000
   70        8.182777   0.000000
   71        8.183535   0.000000
   72        8.184694   0.000000
   73        9.235818   0.000000
   74        9.257079   0.000000
   75        9.258401   0.000000
   76        9.260762   0.000000
   77        9.590812   0.000000
   78        9.606896   0.000000
   79        9.608689   0.000000
   80        9.621547   0.000000
   81        9.945894   0.000000
   82        9.949699   0.000000
   83        9.950586   0.000000
   84        9.953040   0.000000
   85       10.561929   0.000000
   86       10.567461   0.000000
   87       10.581649   0.000000
   88       10.583771   0.000000
   89       10.693760   0.000000
   90       10.694891   0.000000
   91       10.696470   0.000000
   92       10.696966   0.000000
   93       11.067222   0.000000
   94       11.076004   0.000000
   95       11.078764   0.000000
   96       11.081327   0.000000
   97       11.217271   0.000000
   98       11.220391   0.000000
   99       11.221031   0.000000
  100       11.221984   0.000000
  101       11.445739   0.000000
  102       11.447551   0.000000
  103       11.447761   0.000000
  104       11.448031   0.000000
  105       11.958822   0.000000
  106       11.959438   0.000000
  107       11.960032   0.000000
  108       11.962400   0.000000
  109       12.188604   0.000000
  110       12.191821   0.000000
  111       12.194215   0.000000
  112       12.195543   0.000000
  113       12.422091   0.000000
  114       12.422497   0.000000
  115       12.424610   0.000000
  116       12.425135   0.000000
  117       12.674760   0.000000
  118       12.678261   0.000000
  119       12.678299   0.000000
  120       12.679102   0.000000
  121       12.825507   0.000000
  122       12.825943   0.000000
  123       12.826734   0.000000
  124       12.826782   0.000000
  125       12.990023   0.000000
  126       12.991155   0.000000
  127       12.991172   0.000000
  128       12.991579   0.000000
  129       13.153299   0.000000
  130       13.156044   0.000000
  131       13.156137   0.000000
  132       13.157119   0.000000
  133       13.638757   0.000000
  134       13.645740   0.000000
  135       13.649648   0.000000
  136       13.655270   0.000000
  137       13.922528   0.000000
  138       13.927926   0.000000
  139       13.936881   0.000000
  140       13.951161   0.000000
  141       14.057710   0.000000
  142       14.066047   0.000000
  143       14.104546   0.000000
  144       14.121760   0.000000
 
  0.5000000E+00  0.7000000E-01  0.0000000E+00  0.4901961E-02
    1      -15.674359   1.000000
    2      -15.673545   1.000000
    3      -15.673376   1.000000
    4      -15.672447   1.000000
    5      -11.043066   1.000000
    6      -11.042222   1.000000
    7      -11.042069   1.000000
    8      -11.041124   1.000000
    9       -6.626979   1.000000
   10       -6.626716   1.000000
   11       -6.620678   1.000000
   12       -6.614407   1.000000
   13       -5.540482   1.000000
   14       -5.536277   1.000000
   15       -5.529107   1.000000
   16       -5.517390   1.000000
   17       -4.316233   1.000000
   18       -4.297642   1.000000
   19       -4.292157   1.000000
   20       -4.285751   1.000000
   21       -1.438629   0.000000
   22       -1.401619   0.000000
   23       -1.399091   0.000000
   24       -1.394174   0.000000
   25       -0.140291   0.000000
   26       -0.120730   0.000000
   27       -0.120180   0.000000
   28       -0.112241   0.000000
   29        0.668007   0.000000
   30        0.676072   0.000000
   31        0.688883   0.000000
   32        0.695012   0.000000
   33        3.622515   0.000000
   34        3.624630   0.000000
   35        3.625057   0.000000
   36        3.625390   0.000000
   37        4.431877   0.000000
   38        4.434261   0.000000
   39        4.435521   0.000000
   40        4.437885   0.000000
   41        4.749050   0.000000
   42        4.749463   0.000000
   43        4.749739   0.000000
   44        4.749931   0.000000
   45        5.145927   0.000000
   46        5.145984   0.000000
   47        5.146511   0.000000
   48        5.147049   0.000000
   49        5.542128   0.000000
   50        5.543191   0.000000
   51        5.546071   0.000000
   52        5.547107   0.000000
   53        6.153291   0.000000
   54        6.158299   0.000000
   55        6.158479   0.000000
   56        6.159913   0.000000
   57        6.709997   0.000000
   58        6.715490   0.000000
   59        6.717569   0.000000
   60        6.717632   0.000000
   61        7.163109   0.000000
   62        7.166749   0.000000
   63        7.168618   0.000000
   64        7.168716   0.000000
   65        7.797371   0.000000
   66        7.801619   0.000000
   67        7.801863   0.000000
   68        7.805297   0.000000
   69        8.184631   0.000000
   70        8.185597   0.000000
   71        8.186121   0.000000
   72        8.186978   0.000000
   73        9.233731   0.000000
   74        9.258109   0.000000
   75        9.258224   0.000000
   76        9.262217   0.000000
   77        9.602344   0.000000
   78        9.618095   0.000000
   79        9.619091   0.000000
   80        9.631992   0.000000
   81        9.935018   0.000000
   82        9.939497   0.000000
   83        9.940174   0.000000
   84        9.942704   0.000000
   85       10.517425   0.000000
   86       10.522679   0.000000
   87       10.536166   0.000000
   88       10.537752   0.000000
   89       10.621773   0.000000
   90       10.624707   0.000000
   91       10.627459   0.000000
   92       10.629210   0.000000
   93       11.011748   0.000000
   94       11.014568   0.000000
   95       11.018636   0.000000
   96       11.018726   0.000000
   97       11.105285   0.000000
   98       11.110089   0.000000
   99       11.110665   0.000000
  100       11.111521   0.000000
  101       11.392072   0.000000
  102       11.393798   0.000000
  103       11.394554   0.000000
  104       11.395085   0.000000
  105       11.886870   0.000000
  106       11.888429   0.000000
  107       11.890149   0.000000
  108       11.891290   0.000000
  109       12.174254   0.000000
  110       12.179385   0.000000
  111       12.181957   0.000000
  112       12.182095   0.000000
  113       12.393924   0.000000
  114       12.395384   0.000000
  115       12.396077   0.000000
  116       12.398200   0.000000
  117       12.742005   0.000000
  118       12.742898   0.000000
  119       12.743897   0.000000
  120       12.745045   0.000000
  121       12.830169   0.000000
  122       12.830576   0.000000
  123       12.831147   0.000000
  124       12.831302   0.000000
  125       13.125109   0.000000
  126       13.126413   0.000000
  127       13.126499   0.000000
  128       13.126644   0.000000
  129       13.220630   0.000000
  130       13.223694   0.000000
  131       13.224466   0.000000
  132       13.225821   0.000000
  133       13.611626   0.000000
  134       13.616730   0.000000
  135       13.620146   0.000000
  136       13.622454   0.000000
  137       13.899662   0.000000
  138       13.900699   0.000000
  139       13.906717   0.000000
  140       13.911281   0.000000
  141       14.079461   0.000000
  142       14.080925   0.000000
  143       14.091585   0.000000
  144       14.239733   0.000000
 
  0.5000000E+00  0.8000000E-01  0.0000000E+00  0.4901961E-02
    1      -15.672391   1.000000
    2      -15.671574   1.000000
    3      -15.671290   1.000000
    4      -15.670343   1.000000
    5      -11.040599   1.000000
    6      -11.039755   1.000000
    7      -11.039495   1.000000
    8      -11.038535   1.000000
    9       -6.646340   1.000000
   10       -6.645873   1.000000
   11       -6.639059   1.000000
   12       -6.632224   1.000000
   13       -5.563360   1.000000
   14       -5.558259   1.000000
   15       -5.550125   1.000000
   16       -5.537730   1.000000
   17       -4.310785   1.000000
   18       -4.292476   1.000000
   19       -4.284095   1.000000
   20       -4.279046   1.000000
   21       -1.435402   0.000000
   22       -1.395719   0.000000
   23       -1.394957   0.000000
   24       -1.390347   0.000000
   25       -0.076142   0.000000
   26       -0.054094   0.000000
   27       -0.053777   0.000000
   28       -0.045626   0.000000
   29        0.668685   0.000000
   30        0.677820   0.000000
   31        0.690078   0.000000
   32        0.696903   0.000000
   33        3.616003   0.000000
   34        3.618493   0.000000
   35        3.618967   0.000000
   36        3.619271   0.000000
   37        4.436759   0.000000
   38        4.439621   0.000000
   39        4.440996   0.000000
   40        4.443578   0.000000
   41        4.758664   0.000000
   42        4.759129   0.000000
   43        4.759408   0.000000
   44        4.759659   0.000000
   45        5.138566   0.000000
   46        5.138715   0.000000
   47        5.139111   0.000000
   48        5.139259   0.000000
   49        5.551761   0.000000
   50        5.552896   0.000000
   51        5.556034   0.000000
   52        5.556943   0.000000
   53        6.146280   0.000000
   54        6.151393   0.000000
   55        6.151768   0.000000
   56        6.153110   0.000000
   57        6.745774   0.000000
   58        6.751915   0.000000
   59        6.753768   0.000000
   60        6.755054   0.000000
   61        7.141353   0.000000
   62        7.146207   0.000000
   63        7.147570   0.000000
   64        7.148908   0.000000
   65        7.809422   0.000000
   66        7.813475   0.000000
   67        7.813679   0.000000
   68        7.817580   0.000000
   69        8.192675   0.000000
   70        8.194016   0.000000
   71        8.194161   0.000000
   72        8.194759   0.000000
   73        9.229859   0.000000
   74        9.255623   0.000000
   75        9.257285   0.000000
   76        9.261536   0.000000
   77        9.612958   0.000000
   78        9.626736   0.000000
   79        9.629914   0.000000
   80        9.641121   0.000000
   81        9.919986   0.000000
   82        9.924976   0.000000
   83        9.925379   0.000000
   84        9.927840   0.000000
   85       10.453841   0.000000
   86       10.457677   0.000000
   87       10.468516   0.000000
   88       10.469913   0.000000
   89       10.564105   0.000000
   90       10.569714   0.000000
   91       10.575401   0.000000
   92       10.577445   0.000000
   93       10.924410   0.000000
   94       10.924444   0.000000
   95       10.926230   0.000000
   96       10.927025   0.000000
   97       11.016424   0.000000
   98       11.019008   0.000000
   99       11.023308   0.000000
  100       11.024204   0.000000
  101       11.355930   0.000000
  102       11.359236   0.000000
  103       11.361998   0.000000
  104       11.363095   0.000000
  105       11.805645   0.000000
  106       11.807992   0.000000
  107       11.810391   0.000000
  108       11.810596   0.000000
  109       12.092603   0.000000
  110       12.096781   0.000000
  111       12.099444   0.000000
  112       12.100109   0.000000
  113       12.435866   0.000000
  114       12.438803   0.000000
  115       12.440273   0.000000
  116       12.442682   0.000000
  117       12.732970   0.000000
  118       12.735541   0.000000
  119       12.736376   0.000000
  120       12.737167   0.000000
  121       12.895929   0.000000
  122       12.898417   0.000000
  123       12.899063   0.000000
  124       12.899379   0.000000
  125       13.245078   0.000000
  126       13.246728   0.000000
  127       13.248232   0.000000
  128       13.248619   0.000000
  129       13.295461   0.000000
  130       13.296455   0.000000
  131       13.297821   0.000000
  132       13.298379   0.000000
  133       13.585200   0.000000
  134       13.589926   0.000000
  135       13.592201   0.000000
  136       13.592941   0.000000
  137       13.840329   0.000000
  138       13.843716   0.000000
  139       13.845145   0.000000
  140       13.851331   0.000000
  141       14.106694   0.000000
  142       14.114656   0.000000
  143       14.119242   0.000000
  144       14.270018   0.000000
 
  0.5000000E+00  0.9000000E-01  0.0000000E+00  0.4901961E-02
    1      -15.670172   1.000000
    2      -15.669365   1.000000
    3      -15.668944   1.000000
    4      -15.667990   1.000000
    5      -11.037827   1.000000
    6      -11.037002   1.000000
    7      -11.036600   1.000000
    8      -11.035644   1.000000
    9       -6.667647   1.000000
   10       -6.667021   1.000000
   11       -6.659462   1.000000
   12       -6.652076   1.000000
   13       -5.588049   1.000000
   14       -5.582171   1.000000
   15       -5.573078   1.000000
   16       -5.560085   1.000000
   17       -4.305677   1.000000
   18       -4.287785   1.000000
   19       -4.276602   1.000000
   20       -4.272855   1.000000
   21       -1.428295   0.000000
   22       -1.388595   0.000000
   23       -1.384779   0.000000
   24       -1.382824   0.000000
   25       -0.006603   0.000000
   26        0.017887   0.000000
   27        0.017894   0.000000
   28        0.026188   0.000000
   29        0.669545   0.000000
   30        0.679696   0.000000
   31        0.691560   0.000000
   32        0.698965   0.000000
   33        3.608587   0.000000
   34        3.611492   0.000000
   35        3.611995   0.000000
   36        3.612259   0.000000
   37        4.442534   0.000000
   38        4.445891   0.000000
   39        4.447358   0.000000
   40        4.450136   0.000000
   41        4.769514   0.000000
   42        4.770038   0.000000
   43        4.770296   0.000000
   44        4.770622   0.000000
   45        5.131770   0.000000
   46        5.131902   0.000000
   47        5.132284   0.000000
   48        5.132395   0.000000
   49        5.562245   0.000000
   50        5.563481   0.000000
   51        5.566803   0.000000
   52        5.567562   0.000000
   53        6.141596   0.000000
   54        6.146748   0.000000
   55        6.147303   0.000000
   56        6.148560   0.000000
   57        6.778455   0.000000
   58        6.785489   0.000000
   59        6.786559   0.000000
   60        6.789574   0.000000
   61        7.119541   0.000000
   62        7.126121   0.000000
   63        7.126428   0.000000
   64        7.129334   0.000000
   65        7.821008   0.000000
   66        7.824464   0.000000
   67        7.825057   0.000000
   68        7.829166   0.000000
   69        8.207458   0.000000
   70        8.208824   0.000000
   71        8.209182   0.000000
   72        8.209247   0.000000
   73        9.223412   0.000000
   74        9.250302   0.000000
   75        9.253429   0.000000
   76        9.257885   0.000000
   77        9.620502   0.000000
   78        9.632678   0.000000
   79        9.637378   0.000000
   80        9.646839   0.000000
   81        9.901103   0.000000
   82        9.906295   0.000000
   83        9.906567   0.000000
   84        9.908689   0.000000
   85       10.379489   0.000000
   86       10.382586   0.000000
   87       10.391591   0.000000
   88       10.392997   0.000000
   89       10.514028   0.000000
   90       10.521008   0.000000
   91       10.528616   0.000000
   92       10.530063   0.000000
   93       10.814746   0.000000
   94       10.814988   0.000000
   95       10.815338   0.000000
   96       10.815661   0.000000
   97       10.943305   0.000000
   98       10.944796   0.000000
   99       10.952488   0.000000
  100       10.952855   0.000000
  101       11.334001   0.000000
  102       11.337947   0.000000
  103       11.341674   0.000000
  104       11.343822   0.000000
  105       11.725733   0.000000
  106       11.728844   0.000000
  107       11.730964   0.000000
  108       11.732048   0.000000
  109       11.988322   0.000000
  110       11.992707   0.000000
  111       11.995374   0.000000
  112       11.996200   0.000000
  113       12.493985   0.000000
  114       12.496514   0.000000
  115       12.498821   0.000000
  116       12.501066   0.000000
  117       12.696521   0.000000
  118       12.699604   0.000000
  119       12.700746   0.000000
  120       12.701197   0.000000
  121       12.985968   0.000000
  122       12.988764   0.000000
  123       12.988882   0.000000
  124       12.989713   0.000000
  125       13.270589   0.000000
  126       13.275287   0.000000
  127       13.275525   0.000000
  128       13.278356   0.000000
  129       13.419432   0.000000
  130       13.419793   0.000000
  131       13.419891   0.000000
  132       13.419987   0.000000
  133       13.590272   0.000000
  134       13.593494   0.000000
  135       13.594160   0.000000
  136       13.594798   0.000000
  137       13.788564   0.000000
  138       13.791618   0.000000
  139       13.792220   0.000000
  140       13.793398   0.000000
  141       14.118721   0.000000
  142       14.123541   0.000000
  143       14.129202   0.000000
  144       14.144646   0.000000
 
  0.5000000E+00  0.1000000E+00  0.0000000E+00  0.4901961E-02
    1      -15.667711   1.000000
    2      -15.666915   1.000000
    3      -15.666351   1.000000
    4      -15.665396   1.000000
    5      -11.034762   1.000000
    6      -11.033964   1.000000
    7      -11.033408   1.000000
    8      -11.032463   1.000000
    9       -6.690727   1.000000
   10       -6.689984   1.000000
   11       -6.681716   1.000000
   12       -6.673794   1.000000
   13       -5.614350   1.000000
   14       -5.607813   1.000000
   15       -5.597761   1.000000
   16       -5.584243   1.000000
   17       -4.301184   1.000000
   18       -4.283825   1.000000
   19       -4.269945   1.000000
   20       -4.267430   1.000000
   21       -1.416868   0.000000
   22       -1.377241   0.000000
   23       -1.371110   0.000000
   24       -1.370574   0.000000
   25        0.067560   0.000000
   26        0.094106   0.000000
   27        0.094549   0.000000
   28        0.102556   0.000000
   29        0.670612   0.000000
   30        0.681700   0.000000
   31        0.693390   0.000000
   32        0.701199   0.000000
   33        3.600285   0.000000
   34        3.603642   0.000000
   35        3.604161   0.000000
   36        3.604372   0.000000
   37        4.449274   0.000000
   38        4.453140   0.000000
   39        4.454676   0.000000
   40        4.457623   0.000000
   41        4.781576   0.000000
   42        4.782167   0.000000
   43        4.782378   0.000000
   44        4.782794   0.000000
   45        5.125675   0.000000
   46        5.125970   0.000000
   47        5.126693   0.000000
   48        5.126725   0.000000
   49        5.573474   0.000000
   50        5.574839   0.000000
   51        5.578279   0.000000
   52        5.578863   0.000000
   53        6.139302   0.000000
   54        6.144431   0.000000
   55        6.145155   0.000000
   56        6.146335   0.000000
   57        6.805087   0.000000
   58        6.812793   0.000000
   59        6.813208   0.000000
   60        6.817904   0.000000
   61        7.100611   0.000000
   62        7.107903   0.000000
   63        7.109421   0.000000
   64        7.112638   0.000000
   65        7.831864   0.000000
   66        7.834483   0.000000
   67        7.835663   0.000000
   68        7.839797   0.000000
   69        8.229664   0.000000
   70        8.230835   0.000000
   71        8.231168   0.000000
   72        8.231756   0.000000
   73        9.213421   0.000000
   74        9.241317   0.000000
   75        9.245650   0.000000
   76        9.250238   0.000000
   77        9.621688   0.000000
   78        9.632868   0.000000
   79        9.638338   0.000000
   80        9.645841   0.000000
   81        9.880497   0.000000
   82        9.885418   0.000000
   83        9.886069   0.000000
   84        9.887389   0.000000
   85       10.302408   0.000000
   86       10.305616   0.000000
   87       10.313595   0.000000
   88       10.314880   0.000000
   89       10.463607   0.000000
   90       10.470335   0.000000
   91       10.478961   0.000000
   92       10.479241   0.000000
   93       10.702017   0.000000
   94       10.702274   0.000000
   95       10.702379   0.000000
   96       10.702426   0.000000
   97       10.873972   0.000000
   98       10.876990   0.000000
   99       10.886022   0.000000
  100       10.887168   0.000000
  101       11.317315   0.000000
  102       11.321126   0.000000
  103       11.324981   0.000000
  104       11.326943   0.000000
  105       11.652572   0.000000
  106       11.655851   0.000000
  107       11.657535   0.000000
  108       11.661013   0.000000
  109       11.881862   0.000000
  110       11.887314   0.000000
  111       11.889704   0.000000
  112       11.890706   0.000000
  113       12.537551   0.000000
  114       12.537633   0.000000
  115       12.538794   0.000000
  116       12.541859   0.000000
  117       12.665569   0.000000
  118       12.667197   0.000000
  119       12.668131   0.000000
  120       12.669060   0.000000
  121       13.071011   0.000000
  122       13.072687   0.000000
  123       13.075007   0.000000
  124       13.075825   0.000000
  125       13.245153   0.000000
  126       13.249160   0.000000
  127       13.249253   0.000000
  128       13.252409   0.000000
  129       13.523713   0.000000
  130       13.524537   0.000000
  131       13.524883   0.000000
  132       13.525624   0.000000
  133       13.639160   0.000000
  134       13.639419   0.000000
  135       13.639499   0.000000
  136       13.640602   0.000000
  137       13.774786   0.000000
  138       13.775619   0.000000
  139       13.776562   0.000000
  140       13.778049   0.000000
  141       14.117374   0.000000
  142       14.123589   0.000000
  143       14.127521   0.000000
  144       14.146487   0.000000
 
  0.5000000E+00  0.1100000E+00  0.0000000E+00  0.4901961E-02
    1      -15.665015   1.000000
    2      -15.664234   1.000000
    3      -15.663524   1.000000
    4      -15.662569   1.000000
    5      -11.031419   1.000000
    6      -11.030650   1.000000
    7      -11.029936   1.000000
    8      -11.029007   1.000000
    9       -6.715394   1.000000
   10       -6.714575   1.000000
   11       -6.705634   1.000000
   12       -6.697197   1.000000
   13       -5.642096   1.000000
   14       -5.635019   1.000000
   15       -5.624004   1.000000
   16       -5.610026   1.000000
   17       -4.297524   1.000000
   18       -4.280794   1.000000
   19       -4.264330   1.000000
   20       -4.262968   1.000000
   21       -1.400810   0.000000
   22       -1.361304   0.000000
   23       -1.354846   0.000000
   24       -1.351974   0.000000
   25        0.145613   0.000000
   26        0.174231   0.000000
   27        0.175259   0.000000
   28        0.182898   0.000000
   29        0.671937   0.000000
   30        0.683836   0.000000
   31        0.695671   0.000000
   32        0.703615   0.000000
   33        3.591131   0.000000
   34        3.594976   0.000000
   35        3.595497   0.000000
   36        3.595641   0.000000
   37        4.457054   0.000000
   38        4.461440   0.000000
   39        4.463022   0.000000
   40        4.466108   0.000000
   41        4.794817   0.000000
   42        4.795486   0.000000
   43        4.795619   0.000000
   44        4.796143   0.000000
   45        5.120714   0.000000
   46        5.121493   0.000000
   47        5.122417   0.000000
   48        5.122464   0.000000
   49        5.585340   0.000000
   50        5.586859   0.000000
   51        5.590358   0.000000
   52        5.590745   0.000000
   53        6.139371   0.000000
   54        6.144414   0.000000
   55        6.145305   0.000000
   56        6.146419   0.000000
   57        6.821762   0.000000
   58        6.828221   0.000000
   59        6.830847   0.000000
   60        6.835397   0.000000
   61        7.089162   0.000000
   62        7.096162   0.000000
   63        7.100301   0.000000
   64        7.102648   0.000000
   65        7.842014   0.000000
   66        7.843677   0.000000
   67        7.845526   0.000000
   68        7.849538   0.000000
   69        8.259445   0.000000
   70        8.260385   0.000000
   71        8.260690   0.000000
   72        8.261851   0.000000
   73        9.198676   0.000000
   74        9.227551   0.000000
   75        9.232691   0.000000
   76        9.237295   0.000000
   77        9.612219   0.000000
   78        9.623204   0.000000
   79        9.628621   0.000000
   80        9.633879   0.000000
   81        9.862386   0.000000
   82        9.866526   0.000000
   83        9.868280   0.000000
   84        9.868351   0.000000
   85       10.225308   0.000000
   86       10.228983   0.000000
   87       10.236169   0.000000
   88       10.237251   0.000000
   89       10.407047   0.000000
   90       10.412668   0.000000
   91       10.420530   0.000000
   92       10.421854   0.000000
   93       10.595712   0.000000
   94       10.596411   0.000000
   95       10.596837   0.000000
   96       10.597285   0.000000
   97       10.808245   0.000000
   98       10.810231   0.000000
   99       10.822115   0.000000
  100       10.823589   0.000000
  101       11.295951   0.000000
  102       11.299204   0.000000
  103       11.302043   0.000000
  104       11.302595   0.000000
  105       11.589493   0.000000
  106       11.591460   0.000000
  107       11.593109   0.000000
  108       11.600107   0.000000
  109       11.782418   0.000000
  110       11.789380   0.000000
  111       11.790836   0.000000
  112       11.792325   0.000000
  113       12.527467   0.000000
  114       12.530177   0.000000
  115       12.532288   0.000000
  116       12.533534   0.000000
  117       12.666515   0.000000
  118       12.670473   0.000000
  119       12.670872   0.000000
  120       12.671753   0.000000
  121       13.106224   0.000000
  122       13.107458   0.000000
  123       13.113594   0.000000
  124       13.115311   0.000000
  125       13.237053   0.000000
  126       13.237266   0.000000
  127       13.238059   0.000000
  128       13.238209   0.000000
  129       13.548129   0.000000
  130       13.550691   0.000000
  131       13.551116   0.000000
  132       13.551311   0.000000
  133       13.735285   0.000000
  134       13.735737   0.000000
  135       13.735803   0.000000
  136       13.736699   0.000000
  137       13.814517   0.000000
  138       13.815076   0.000000
  139       13.815355   0.000000
  140       13.817232   0.000000
  141       14.123883   0.000000
  142       14.127900   0.000000
  143       14.128667   0.000000
  144       14.140176   0.000000
 
  0.5000000E+00  0.1200000E+00  0.0000000E+00  0.4901961E-02
    1      -15.662095   1.000000
    2      -15.661329   1.000000
    3      -15.660472   1.000000
    4      -15.659519   1.000000
    5      -11.027810   1.000000
    6      -11.027074   1.000000
    7      -11.026200   1.000000
    8      -11.025289   1.000000
    9       -6.741451   1.000000
   10       -6.740593   1.000000
   11       -6.731018   1.000000
   12       -6.722086   1.000000
   13       -5.671146   1.000000
   14       -5.663641   1.000000
   15       -5.651658   1.000000
   16       -5.637276   1.000000
   17       -4.294856   1.000000
   18       -4.278828   1.000000
   19       -4.259902   1.000000
   20       -4.259604   1.000000
   21       -1.379925   0.000000
   22       -1.340555   0.000000
   23       -1.333798   0.000000
   24       -1.328733   0.000000
   25        0.226815   0.000000
   26        0.257637   0.000000
   27        0.259472   0.000000
   28        0.266688   0.000000
   29        0.673628   0.000000
   30        0.686128   0.000000
   31        0.698600   0.000000
   32        0.706242   0.000000
   33        3.581188   0.000000
   34        3.585550   0.000000
   35        3.586064   0.000000
   36        3.586127   0.000000
   37        4.465957   0.000000
   38        4.470868   0.000000
   39        4.472473   0.000000
   40        4.475665   0.000000
   41        4.809200   0.000000
   42        4.809957   0.000000
   43        4.809978   0.000000
   44        4.810630   0.000000
   45        5.117348   0.000000
   46        5.118622   0.000000
   47        5.119745   0.000000
   48        5.119826   0.000000
   49        5.597730   0.000000
   50        5.599424   0.000000
   51        5.602929   0.000000
   52        5.603098   0.000000
   53        6.141720   0.000000
   54        6.146617   0.000000
   55        6.147679   0.000000
   56        6.148738   0.000000
   57        6.824749   0.000000
   58        6.829057   0.000000
   59        6.834085   0.000000
   60        6.837377   0.000000
   61        7.090046   0.000000
   62        7.095694   0.000000
   63        7.102709   0.000000
   64        7.103241   0.000000
   65        7.851722   0.000000
   66        7.852405   0.000000
   67        7.854941   0.000000
   68        7.858713   0.000000
   69        8.296469   0.000000
   70        8.297185   0.000000
   71        8.297471   0.000000
   72        8.299102   0.000000
   73        9.177746   0.000000
   74        9.207577   0.000000
   75        9.213020   0.000000
   76        9.217469   0.000000
   77        9.588787   0.000000
   78        9.600385   0.000000
   79        9.605076   0.000000
   80        9.608116   0.000000
   81        9.850859   0.000000
   82        9.854074   0.000000
   83        9.855921   0.000000
   84        9.857275   0.000000
   85       10.149096   0.000000
   86       10.152887   0.000000
   87       10.159305   0.000000
   88       10.160283   0.000000
   89       10.336068   0.000000
   90       10.340836   0.000000
   91       10.346781   0.000000
   92       10.349555   0.000000
   93       10.506692   0.000000
   94       10.507139   0.000000
   95       10.508668   0.000000
   96       10.509828   0.000000
   97       10.744513   0.000000
   98       10.745367   0.000000
   99       10.759985   0.000000
  100       10.761527   0.000000
  101       11.261872   0.000000
  102       11.264000   0.000000
  103       11.264363   0.000000
  104       11.265098   0.000000
  105       11.531270   0.000000
  106       11.532736   0.000000
  107       11.533807   0.000000
  108       11.542639   0.000000
  109       11.702995   0.000000
  110       11.709590   0.000000
  111       11.710172   0.000000
  112       11.712010   0.000000
  113       12.476552   0.000000
  114       12.481022   0.000000
  115       12.482025   0.000000
  116       12.485440   0.000000
  117       12.694574   0.000000
  118       12.698217   0.000000
  119       12.700350   0.000000
  120       12.700481   0.000000
  121       13.054707   0.000000
  122       13.057494   0.000000
  123       13.063432   0.000000
  124       13.065437   0.000000
  125       13.281802   0.000000
  126       13.282185   0.000000
  127       13.282907   0.000000
  128       13.284057   0.000000
  129       13.552949   0.000000
  130       13.556268   0.000000
  131       13.556305   0.000000
  132       13.557749   0.000000
  133       13.784957   0.000000
  134       13.785607   0.000000
  135       13.786417   0.000000
  136       13.787387   0.000000
  137       13.926052   0.000000
  138       13.926502   0.000000
  139       13.926823   0.000000
  140       13.928261   0.000000
  141       14.168781   0.000000
  142       14.171918   0.000000
  143       14.176885   0.000000
  144       14.191104   0.000000
 
  0.5000000E+00  0.1300000E+00  0.0000000E+00  0.4901961E-02
    1      -15.658962   1.000000
    2      -15.658212   1.000000
    3      -15.657208   1.000000
    4      -15.656258   1.000000
    5      -11.023953   1.000000
    6      -11.023253   1.000000
    7      -11.022218   1.000000
    8      -11.021325   1.000000
    9       -6.768699   1.000000
   10       -6.767837   1.000000
   11       -6.757666   1.000000
   12       -6.748264   1.000000
   13       -5.701390   1.000000
   14       -5.693563   1.000000
   15       -5.680608   1.000000
   16       -5.665871   1.000000
   17       -4.293274   1.000000
   18       -4.278006   1.000000
   19       -4.257416   1.000000
   20       -4.256745   1.000000
   21       -1.354134   0.000000
   22       -1.314884   0.000000
   23       -1.307850   0.000000
   24       -1.300727   0.000000
   25        0.310293   0.000000
   26        0.343621   0.000000
   27        0.346653   0.000000
   28        0.353405   0.000000
   29        0.675913   0.000000
   30        0.688630   0.000000
   31        0.702546   0.000000
   32        0.709141   0.000000
   33        3.570538   0.000000
   34        3.575440   0.000000
   35        3.575909   0.000000
   36        3.575941   0.000000
   37        4.476061   0.000000
   38        4.481497   0.000000
   39        4.483106   0.000000
   40        4.486369   0.000000
   41        4.824678   0.000000
   42        4.825398   0.000000
   43        4.825539   0.000000
   44        4.826205   0.000000
   45        5.115820   0.000000
   46        5.117585   0.000000
   47        5.118918   0.000000
   48        5.118998   0.000000
   49        5.610519   0.000000
   50        5.612403   0.000000
   51        5.615796   0.000000
   52        5.615867   0.000000
   53        6.146223   0.000000
   54        6.150909   0.000000
   55        6.152153   0.000000
   56        6.153169   0.000000
   57        6.813104   0.000000
   58        6.814927   0.000000
   59        6.821698   0.000000
   60        6.822985   0.000000
   61        7.104480   0.000000
   62        7.108071   0.000000
   63        7.115666   0.000000
   64        7.117383   0.000000
   65        7.861118   0.000000
   66        7.861369   0.000000
   67        7.864311   0.000000
   68        7.867764   0.000000
   69        8.340028   0.000000
   70        8.340557   0.000000
   71        8.340787   0.000000
   72        8.342779   0.000000
   73        9.149076   0.000000
   74        9.179715   0.000000
   75        9.184932   0.000000
   76        9.189009   0.000000
   77        9.552141   0.000000
   78        9.564908   0.000000
   79        9.568541   0.000000
   80        9.569978   0.000000
   81        9.845604   0.000000
   82        9.848520   0.000000
   83        9.850376   0.000000
   84        9.852020   0.000000
   85       10.075924   0.000000
   86       10.078577   0.000000
   87       10.084328   0.000000
   88       10.085456   0.000000
   89       10.245578   0.000000
   90       10.249918   0.000000
   91       10.253913   0.000000
   92       10.257195   0.000000
   93       10.438653   0.000000
   94       10.441645   0.000000
   95       10.442611   0.000000
   96       10.444633   0.000000
   97       10.680503   0.000000
   98       10.685106   0.000000
   99       10.699470   0.000000
  100       10.700995   0.000000
  101       11.211241   0.000000
  102       11.213016   0.000000
  103       11.213042   0.000000
  104       11.214681   0.000000
  105       11.462128   0.000000
  106       11.466330   0.000000
  107       11.467533   0.000000
  108       11.471423   0.000000
  109       11.659591   0.000000
  110       11.660485   0.000000
  111       11.663206   0.000000
  112       11.663551   0.000000
  113       12.412514   0.000000
  114       12.417267   0.000000
  115       12.417995   0.000000
  116       12.422106   0.000000
  117       12.722413   0.000000
  118       12.725032   0.000000
  119       12.727432   0.000000
  120       12.727741   0.000000
  121       12.977260   0.000000
  122       12.980087   0.000000
  123       12.986091   0.000000
  124       12.987505   0.000000
  125       13.313578   0.000000
  126       13.313620   0.000000
  127       13.315694   0.000000
  128       13.316946   0.000000
  129       13.582896   0.000000
  130       13.585872   0.000000
  131       13.586404   0.000000
  132       13.588711   0.000000
  133       13.792973   0.000000
  134       13.793529   0.000000
  135       13.796358   0.000000
  136       13.797162   0.000000
  137       14.069361   0.000000
  138       14.069792   0.000000
  139       14.070267   0.000000
  140       14.071168   0.000000
  141       14.256971   0.000000
  142       14.260829   0.000000
  143       14.265578   0.000000
  144       14.268481   0.000000
 
  0.5000000E+00  0.1400000E+00  0.0000000E+00  0.4901961E-02
    1      -15.655623   1.000000
    2      -15.654890   1.000000
    3      -15.653739   1.000000
    4      -15.652793   1.000000
    5      -11.019864   1.000000
    6      -11.019201   1.000000
    7      -11.018005   1.000000
    8      -11.017134   1.000000
    9       -6.796930   1.000000
   10       -6.796092   1.000000
   11       -6.785366   1.000000
   12       -6.775518   1.000000
   13       -5.732736   1.000000
   14       -5.724684   1.000000
   15       -5.710752   1.000000
   16       -5.695707   1.000000
   17       -4.292810   1.000000
   18       -4.278340   1.000000
   19       -4.256420   1.000000
   20       -4.254877   1.000000
   21       -1.323447   0.000000
   22       -1.284278   0.000000
   23       -1.276985   0.000000
   24       -1.267927   0.000000
   25        0.394825   0.000000
   26        0.431197   0.000000
   27        0.436229   0.000000
   28        0.442492   0.000000
   29        0.679376   0.000000
   30        0.691506   0.000000
   31        0.708306   0.000000
   32        0.712480   0.000000
   33        3.559297   0.000000
   34        3.564755   0.000000
   35        3.565102   0.000000
   36        3.565238   0.000000
   37        4.487446   0.000000
   38        4.493405   0.000000
   39        4.494999   0.000000
   40        4.498294   0.000000
   41        4.841190   0.000000
   42        4.841820   0.000000
   43        4.842171   0.000000
   44        4.842811   0.000000
   45        5.116328   0.000000
   46        5.118561   0.000000
   47        5.120107   0.000000
   48        5.120153   0.000000
   49        5.623567   0.000000
   50        5.625649   0.000000
   51        5.628698   0.000000
   52        5.629025   0.000000
   53        6.152728   0.000000
   54        6.157134   0.000000
   55        6.158580   0.000000
   56        6.159565   0.000000
   57        6.789188   0.000000
   58        6.789522   0.000000
   59        6.796053   0.000000
   60        6.796782   0.000000
   61        7.129204   0.000000
   62        7.130769   0.000000
   63        7.137797   0.000000
   64        7.141504   0.000000
   65        7.870255   0.000000
   66        7.871349   0.000000
   67        7.874042   0.000000
   68        7.877131   0.000000
   69        8.389169   0.000000
   70        8.389554   0.000000
   71        8.389669   0.000000
   72        8.391915   0.000000
   73        9.111389   0.000000
   74        9.142447   0.000000
   75        9.147012   0.000000
   76        9.150496   0.000000
   77        9.506598   0.000000
   78        9.520684   0.000000
   79        9.523070   0.000000
   80        9.523797   0.000000
   81        9.839610   0.000000
   82        9.843447   0.000000
   83        9.844562   0.000000
   84        9.844664   0.000000
   85       10.011292   0.000000
   86       10.012064   0.000000
   87       10.016680   0.000000
   88       10.018106   0.000000
   89       10.142490   0.000000
   90       10.146046   0.000000
   91       10.149250   0.000000
   92       10.152532   0.000000
   93       10.384812   0.000000
   94       10.390175   0.000000
   95       10.390253   0.000000
   96       10.392918   0.000000
   97       10.619780   0.000000
   98       10.628043   0.000000
   99       10.641318   0.000000
  100       10.642916   0.000000
  101       11.149187   0.000000
  102       11.150428   0.000000
  103       11.153207   0.000000
  104       11.153967   0.000000
  105       11.380216   0.000000
  106       11.385204   0.000000
  107       11.385899   0.000000
  108       11.387875   0.000000
  109       11.643251   0.000000
  110       11.646186   0.000000
  111       11.646722   0.000000
  112       11.647176   0.000000
  113       12.344005   0.000000
  114       12.348415   0.000000
  115       12.349102   0.000000
  116       12.353548   0.000000
  117       12.738308   0.000000
  118       12.739955   0.000000
  119       12.742451   0.000000
  120       12.742721   0.000000
  121       12.896958   0.000000
  122       12.899480   0.000000
  123       12.905424   0.000000
  124       12.906387   0.000000
  125       13.317395   0.000000
  126       13.318043   0.000000
  127       13.320080   0.000000
  128       13.321193   0.000000
  129       13.626412   0.000000
  130       13.629100   0.000000
  131       13.630141   0.000000
  132       13.631145   0.000000
  133       13.809308   0.000000
  134       13.809727   0.000000
  135       13.813255   0.000000
  136       13.814873   0.000000
  137       14.215797   0.000000
  138       14.216464   0.000000
  139       14.217433   0.000000
  140       14.224613   0.000000
  141       14.374004   0.000000
  142       14.377565   0.000000
  143       14.389937   0.000000
  144       14.430216   0.000000
 
  0.5000000E+00  0.1500000E+00  0.0000000E+00  0.4901961E-02
    1      -15.652095   1.000000
    2      -15.651379   1.000000
    3      -15.650080   1.000000
    4      -15.649140   1.000000
    5      -11.015563   1.000000
    6      -11.014938   1.000000
    7      -11.013580   1.000000
    8      -11.012733   1.000000
    9       -6.825938   1.000000
   10       -6.825151   1.000000
   11       -6.813910   1.000000
   12       -6.803643   1.000000
   13       -5.765112   1.000000
   14       -5.756927   1.000000
   15       -5.742016   1.000000
   16       -5.726703   1.000000
   17       -4.293448   1.000000
   18       -4.279798   1.000000
   19       -4.256586   1.000000
   20       -4.254273   1.000000
   21       -1.287977   0.000000
   22       -1.248826   0.000000
   23       -1.241288   0.000000
   24       -1.230407   0.000000
   25        0.478143   0.000000
   26        0.518189   0.000000
   27        0.527292   0.000000
   28        0.533085   0.000000
   29        0.685812   0.000000
   30        0.695273   0.000000
   31        0.716747   0.000000
   32        0.717741   0.000000
   33        3.547598   0.000000
   34        3.553619   0.000000
   35        3.553836   0.000000
   36        3.554083   0.000000
   37        4.500183   0.000000
   38        4.506656   0.000000
   39        4.508221   0.000000
   40        4.511510   0.000000
   41        4.858663   0.000000
   42        4.859161   0.000000
   43        4.859783   0.000000
   44        4.860371   0.000000
   45        5.119013   0.000000
   46        5.121678   0.000000
   47        5.123412   0.000000
   48        5.123428   0.000000
   49        5.636701   0.000000
   50        5.638983   0.000000
   51        5.641629   0.000000
   52        5.642227   0.000000
   53        6.161046   0.000000
   54        6.165096   0.000000
   55        6.166770   0.000000
   56        6.167737   0.000000
   57        6.756127   0.000000
   58        6.758022   0.000000
   59        6.761473   0.000000
   60        6.763858   0.000000
   61        7.159907   0.000000
   62        7.160014   0.000000
   63        7.166224   0.000000
   64        7.171461   0.000000
   65        7.880149   0.000000
   66        7.881977   0.000000
   67        7.884450   0.000000
   68        7.887160   0.000000
   69        8.442634   0.000000
   70        8.442793   0.000000
   71        8.442984   0.000000
   72        8.445250   0.000000
   73        9.064260   0.000000
   74        9.095112   0.000000
   75        9.098824   0.000000
   76        9.101579   0.000000
   77        9.456232   0.000000
   78        9.471310   0.000000
   79        9.472233   0.000000
   80        9.472917   0.000000
   81        9.818392   0.000000
   82        9.820021   0.000000
   83        9.822945   0.000000
   84        9.823604   0.000000
   85        9.962668   0.000000
   86        9.966482   0.000000
   87        9.967120   0.000000
   88        9.967678   0.000000
   89       10.039754   0.000000
   90       10.039978   0.000000
   91       10.044623   0.000000
   92       10.047757   0.000000
   93       10.334172   0.000000
   94       10.340689   0.000000
   95       10.341110   0.000000
   96       10.342734   0.000000
   97       10.564562   0.000000
   98       10.575306   0.000000
   99       10.586901   0.000000
  100       10.588840   0.000000
  101       11.082594   0.000000
  102       11.082753   0.000000
  103       11.087193   0.000000
  104       11.087328   0.000000
  105       11.293365   0.000000
  106       11.294658   0.000000
  107       11.300279   0.000000
  108       11.302097   0.000000
  109       11.642332   0.000000
  110       11.645146   0.000000
  111       11.645830   0.000000
  112       11.648407   0.000000
  113       12.274994   0.000000
  114       12.278677   0.000000
  115       12.279342   0.000000
  116       12.283999   0.000000
  117       12.727331   0.000000
  118       12.729178   0.000000
  119       12.729774   0.000000
  120       12.732230   0.000000
  121       12.832213   0.000000
  122       12.833299   0.000000
  123       12.837629   0.000000
  124       12.838616   0.000000
  125       13.308185   0.000000
  126       13.309003   0.000000
  127       13.310817   0.000000
  128       13.311284   0.000000
  129       13.649466   0.000000
  130       13.650293   0.000000
  131       13.651077   0.000000
  132       13.651860   0.000000
  133       13.865744   0.000000
  134       13.866054   0.000000
  135       13.868239   0.000000
  136       13.869866   0.000000
  137       14.356126   0.000000
  138       14.356868   0.000000
  139       14.363482   0.000000
  140       14.374817   0.000000
  141       14.506028   0.000000
  142       14.512413   0.000000
  143       14.524533   0.000000
  144       14.588748   0.000000
 
  0.5000000E+00  0.1600000E+00  0.0000000E+00  0.4901961E-02
    1      -15.648387   1.000000
    2      -15.647689   1.000000
    3      -15.646243   1.000000
    4      -15.645311   1.000000
    5      -11.011067   1.000000
    6      -11.010483   1.000000
    7      -11.008964   1.000000
    8      -11.008141   1.000000
    9       -6.855519   1.000000
   10       -6.854804   1.000000
   11       -6.843090   1.000000
   12       -6.832428   1.000000
   13       -5.798459   1.000000
   14       -5.790223   1.000000
   15       -5.774335   1.000000
   16       -5.758789   1.000000
   17       -4.295124   1.000000
   18       -4.282301   1.000000
   19       -4.257840   1.000000
   20       -4.254858   1.000000
   21       -1.247899   0.000000
   22       -1.208684   0.000000
   23       -1.200913   0.000000
   24       -1.188313   0.000000
   25        0.555061   0.000000
   26        0.596788   0.000000
   27        0.616726   0.000000
   28        0.622616   0.000000
   29        0.702697   0.000000
   30        0.702710   0.000000
   31        0.724185   0.000000
   32        0.735687   0.000000
   33        3.535602   0.000000
   34        3.542189   0.000000
   35        3.542272   0.000000
   36        3.542631   0.000000
   37        4.514338   0.000000
   38        4.521313   0.000000
   39        4.522837   0.000000
   40        4.526081   0.000000
   41        4.877004   0.000000
   42        4.877323   0.000000
   43        4.878288   0.000000
   44        4.878792   0.000000
   45        5.123982   0.000000
   46        5.127025   0.000000
   47        5.128872   0.000000
   48        5.128958   0.000000
   49        5.649724   0.000000
   50        5.652196   0.000000
   51        5.654383   0.000000
   52        5.655260   0.000000
   53        6.170960   0.000000
   54        6.174566   0.000000
   55        6.176504   0.000000
   56        6.177467   0.000000
   57        6.719188   0.000000
   58        6.722109   0.000000
   59        6.722983   0.000000
   60        6.726673   0.000000
   61        7.192611   0.000000
   62        7.193988   0.000000
   63        7.198261   0.000000
   64        7.204629   0.000000
   65        7.891020   0.000000
   66        7.893466   0.000000
   67        7.895746   0.000000
   68        7.898078   0.000000
   69        8.498520   0.000000
   70        8.498690   0.000000
   71        8.499012   0.000000
   72        8.501058   0.000000
   73        9.008822   0.000000
   74        9.038785   0.000000
   75        9.041692   0.000000
   76        9.043736   0.000000
   77        9.402491   0.000000
   78        9.417134   0.000000
   79        9.417770   0.000000
   80        9.417887   0.000000
   81        9.772088   0.000000
   82        9.772159   0.000000
   83        9.774350   0.000000
   84        9.777280   0.000000
   85        9.901876   0.000000
   86        9.906481   0.000000
   87        9.909126   0.000000
   88        9.909384   0.000000
   89        9.970655   0.000000
   90        9.981711   0.000000
   91        9.984039   0.000000
   92        9.986197   0.000000
   93       10.279801   0.000000
   94       10.286607   0.000000
   95       10.287065   0.000000
   96       10.287349   0.000000
   97       10.516153   0.000000
   98       10.527481   0.000000
   99       10.537122   0.000000
  100       10.539768   0.000000
  101       11.013695   0.000000
  102       11.015578   0.000000
  103       11.018513   0.000000
  104       11.019525   0.000000
  105       11.205892   0.000000
  106       11.207492   0.000000
  107       11.215585   0.000000
  108       11.216744   0.000000
  109       11.644977   0.000000
  110       11.647984   0.000000
  111       11.648343   0.000000
  112       11.651589   0.000000
  113       12.208620   0.000000
  114       12.211314   0.000000
  115       12.211842   0.000000
  116       12.216654   0.000000
  117       12.670311   0.000000
  118       12.670459   0.000000
  119       12.674163   0.000000
  120       12.677523   0.000000
  121       12.802262   0.000000
  122       12.803375   0.000000
  123       12.803781   0.000000
  124       12.804387   0.000000
  125       13.295936   0.000000
  126       13.296336   0.000000
  127       13.297595   0.000000
  128       13.298061   0.000000
  129       13.652266   0.000000
  130       13.654505   0.000000
  131       13.655139   0.000000
  132       13.655687   0.000000
  133       13.947551   0.000000
  134       13.948117   0.000000
  135       13.949608   0.000000
  136       13.950379   0.000000
  137       14.461548   0.000000
  138       14.465570   0.000000
  139       14.481112   0.000000
  140       14.504447   0.000000
  141       14.625903   0.000000
  142       14.632647   0.000000
  143       14.636981   0.000000
  144       14.652970   0.000000
 
  0.5000000E+00  0.1700000E+00  0.0000000E+00  0.4901961E-02
    1      -15.644514   1.000000
    2      -15.643834   1.000000
    3      -15.642240   1.000000
    4      -15.641317   1.000000
    5      -11.006399   1.000000
    6      -11.005855   1.000000
    7      -11.004176   1.000000
    8      -11.003379   1.000000
    9       -6.885467   1.000000
   10       -6.884843   1.000000
   11       -6.872695   1.000000
   12       -6.861665   1.000000
   13       -5.832723   1.000000
   14       -5.824507   1.000000
   15       -5.807648   1.000000
   16       -5.791904   1.000000
   17       -4.297740   1.000000
   18       -4.285742   1.000000
   19       -4.260078   1.000000
   20       -4.256525   1.000000
   21       -1.203454   0.000000
   22       -1.164076   0.000000
   23       -1.156080   0.000000
   24       -1.141856   0.000000
   25        0.614571   0.000000
   26        0.643575   0.000000
   27        0.678356   0.000000
   28        0.692459   0.000000
   29        0.739674   0.000000
   30        0.753115   0.000000
   31        0.753146   0.000000
   32        0.772822   0.000000
   33        3.523489   0.000000
   34        3.530588   0.000000
   35        3.530634   0.000000
   36        3.531051   0.000000
   37        4.529962   0.000000
   38        4.537426   0.000000
   39        4.538902   0.000000
   40        4.542061   0.000000
   41        4.896098   0.000000
   42        4.896183   0.000000
   43        4.897572   0.000000
   44        4.897957   0.000000
   45        5.131304   0.000000
   46        5.134657   0.000000
   47        5.136585   0.000000
   48        5.136748   0.000000
   49        5.662396   0.000000
   50        5.665035   0.000000
   51        5.666710   0.000000
   52        5.667869   0.000000
   53        6.182216   0.000000
   54        6.185272   0.000000
   55        6.187519   0.000000
   56        6.188495   0.000000
   57        6.680915   0.000000
   58        6.683214   0.000000
   59        6.684405   0.000000
   60        6.687936   0.000000
   61        7.227099   0.000000
   62        7.229485   0.000000
   63        7.232202   0.000000
   64        7.239412   0.000000
   65        7.902971   0.000000
   66        7.905922   0.000000
   67        7.908025   0.000000
   68        7.909993   0.000000
   69        8.553932   0.000000
   70        8.554411   0.000000
   71        8.554659   0.000000
   72        8.556424   0.000000
   73        8.948523   0.000000
   74        8.976994   0.000000
   75        8.979264   0.000000
   76        8.980798   0.000000
   77        9.344315   0.000000
   78        9.356751   0.000000
   79        9.357158   0.000000
   80        9.358762   0.000000
   81        9.709030   0.000000
   82        9.709497   0.000000
   83        9.710969   0.000000
   84        9.714166   0.000000
   85        9.803391   0.000000
   86        9.808823   0.000000
   87        9.811648   0.000000
   88        9.813083   0.000000
   89        9.970159   0.000000
   90        9.979605   0.000000
   91        9.983786   0.000000
   92        9.988303   0.000000
   93       10.219657   0.000000
   94       10.222710   0.000000
   95       10.226559   0.000000
   96       10.227060   0.000000
   97       10.472837   0.000000
   98       10.483097   0.000000
   99       10.490802   0.000000
  100       10.494446   0.000000
  101       10.947471   0.000000
  102       10.950884   0.000000
  103       10.951803   0.000000
  104       10.953542   0.000000
  105       11.121322   0.000000
  106       11.125046   0.000000
  107       11.134272   0.000000
  108       11.134432   0.000000
  109       11.643068   0.000000
  110       11.646203   0.000000
  111       11.646464   0.000000
  112       11.649392   0.000000
  113       12.147779   0.000000
  114       12.149360   0.000000
  115       12.149489   0.000000
  116       12.154400   0.000000
  117       12.588652   0.000000
  118       12.589869   0.000000
  119       12.594335   0.000000
  120       12.597841   0.000000
  121       12.786440   0.000000
  122       12.786473   0.000000
  123       12.786729   0.000000
  124       12.788416   0.000000
  125       13.284128   0.000000
  126       13.284451   0.000000
  127       13.284615   0.000000
  128       13.285852   0.000000
  129       13.654224   0.000000
  130       13.657847   0.000000
  131       13.657889   0.000000
  132       13.658599   0.000000
  133       14.025025   0.000000
  134       14.025257   0.000000
  135       14.025452   0.000000
  136       14.027878   0.000000
  137       14.484309   0.000000
  138       14.493495   0.000000
  139       14.501957   0.000000
  140       14.527457   0.000000
  141       14.707698   0.000000
  142       14.720224   0.000000
  143       14.758366   0.000000
  144       14.783154   0.000000
 
  0.5000000E+00  0.1800000E+00  0.0000000E+00  0.4901961E-02
    1      -15.640490   1.000000
    2      -15.639828   1.000000
    3      -15.638089   1.000000
    4      -15.637175   1.000000
    5      -11.001577   1.000000
    6      -11.001076   1.000000
    7      -10.999238   1.000000
    8      -10.998469   1.000000
    9       -6.915592   1.000000
   10       -6.915073   1.000000
   11       -6.902531   1.000000
   12       -6.891159   1.000000
   13       -5.867857   1.000000
   14       -5.859728   1.000000
   15       -5.841908   1.000000
   16       -5.825994   1.000000
   17       -4.301174   1.000000
   18       -4.289985   1.000000
   19       -4.263171   1.000000
   20       -4.259141   1.000000
   21       -1.154938   0.000000
   22       -1.115284   0.000000
   23       -1.107069   0.000000
   24       -1.091307   0.000000
   25        0.648498   0.000000
   26        0.659262   0.000000
   27        0.691651   0.000000
   28        0.712466   0.000000
   29        0.826405   0.000000
   30        0.833406   0.000000
   31        0.836160   0.000000
   32        0.837028   0.000000
   33        3.511457   0.000000
   34        3.518980   0.000000
   35        3.519144   0.000000
   36        3.519533   0.000000
   37        4.547097   0.000000
   38        4.555033   0.000000
   39        4.556458   0.000000
   40        4.559494   0.000000
   41        4.915590   0.000000
   42        4.915800   0.000000
   43        4.917495   0.000000
   44        4.917720   0.000000
   45        5.141024   0.000000
   46        5.144601   0.000000
   47        5.146585   0.000000
   48        5.146819   0.000000
   49        5.674435   0.000000
   50        5.677200   0.000000
   51        5.678317   0.000000
   52        5.679748   0.000000
   53        6.194503   0.000000
   54        6.196885   0.000000
   55        6.199493   0.000000
   56        6.200505   0.000000
   57        6.643294   0.000000
   58        6.644175   0.000000
   59        6.646957   0.000000
   60        6.649731   0.000000
   61        7.262374   0.000000
   62        7.265577   0.000000
   63        7.267036   0.000000
   64        7.274883   0.000000
   65        7.915989   0.000000
   66        7.919336   0.000000
   67        7.921268   0.000000
   68        7.922894   0.000000
   69        8.602835   0.000000
   70        8.603013   0.000000
   71        8.603429   0.000000
   72        8.604987   0.000000
   73        8.891215   0.000000
   74        8.917320   0.000000
   75        8.918997   0.000000
   76        8.920482   0.000000
   77        9.279800   0.000000
   78        9.289037   0.000000
   79        9.289527   0.000000
   80        9.292494   0.000000
   81        9.630877   0.000000
   82        9.633034   0.000000
   83        9.634722   0.000000
   84        9.636604   0.000000
   85        9.717606   0.000000
   86        9.719972   0.000000
   87        9.724386   0.000000
   88        9.724490   0.000000
   89        9.979960   0.000000
   90        9.989599   0.000000
   91        9.996097   0.000000
   92        9.999946   0.000000
   93       10.154871   0.000000
   94       10.157131   0.000000
   95       10.161468   0.000000
   96       10.163291   0.000000
   97       10.430041   0.000000
   98       10.438427   0.000000
   99       10.444307   0.000000
  100       10.449013   0.000000
  101       10.887773   0.000000
  102       10.891124   0.000000
  103       10.891988   0.000000
  104       10.893220   0.000000
  105       11.041707   0.000000
  106       11.046675   0.000000
  107       11.055842   0.000000
  108       11.056891   0.000000
  109       11.631138   0.000000
  110       11.633928   0.000000
  111       11.634881   0.000000
  112       11.636792   0.000000
  113       12.094491   0.000000
  114       12.094621   0.000000
  115       12.095187   0.000000
  116       12.099377   0.000000
  117       12.502773   0.000000
  118       12.504579   0.000000
  119       12.509138   0.000000
  120       12.512816   0.000000
  121       12.768498   0.000000
  122       12.769990   0.000000
  123       12.770138   0.000000
  124       12.772395   0.000000
  125       13.273532   0.000000
  126       13.273981   0.000000
  127       13.275549   0.000000
  128       13.275639   0.000000
  129       13.660821   0.000000
  130       13.664439   0.000000
  131       13.664694   0.000000
  132       13.665617   0.000000
  133       14.074036   0.000000
  134       14.075949   0.000000
  135       14.076069   0.000000
  136       14.079644   0.000000
  137       14.495329   0.000000
  138       14.503211   0.000000
  139       14.507678   0.000000
  140       14.517355   0.000000
  141       14.749542   0.000000
  142       14.765370   0.000000
  143       14.792736   0.000000
  144       14.879821   0.000000
 
  0.5000000E+00  0.1900000E+00  0.0000000E+00  0.4901961E-02
    1      -15.636331   1.000000
    2      -15.635688   1.000000
    3      -15.633802   1.000000
    4      -15.632900   1.000000
    5      -10.996625   1.000000
    6      -10.996167   1.000000
    7      -10.994172   1.000000
    8      -10.993430   1.000000
    9       -6.945701   1.000000
   10       -6.945299   1.000000
   11       -6.932402   1.000000
   12       -6.920712   1.000000
   13       -5.903813   1.000000
   14       -5.895826   1.000000
   15       -5.877061   1.000000
   16       -5.861004   1.000000
   17       -4.305288   1.000000
   18       -4.294886   1.000000
   19       -4.266977   1.000000
   20       -4.262562   1.000000
   21       -1.102687   0.000000
   22       -1.062632   0.000000
   23       -1.054201   0.000000
   24       -1.036978   0.000000
   25        0.665170   0.000000
   26        0.665683   0.000000
   27        0.696476   0.000000
   28        0.719145   0.000000
   29        0.919685   0.000000
   30        0.922764   0.000000
   31        0.928284   0.000000
   32        0.929650   0.000000
   33        3.499708   0.000000
   34        3.507649   0.000000
   35        3.507916   0.000000
   36        3.508268   0.000000
   37        4.565769   0.000000
   38        4.574160   0.000000
   39        4.575536   0.000000
   40        4.578410   0.000000
   41        4.935360   0.000000
   42        4.935928   0.000000
   43        4.937880   0.000000
   44        4.937903   0.000000
   45        5.153164   0.000000
   46        5.156867   0.000000
   47        5.158886   0.000000
   48        5.159173   0.000000
   49        5.685516   0.000000
   50        5.688344   0.000000
   51        5.688870   0.000000
   52        5.690545   0.000000
   53        6.207452   0.000000
   54        6.209011   0.000000
   55        6.212035   0.000000
   56        6.213117   0.000000
   57        6.607605   0.000000
   58        6.608046   0.000000
   59        6.611519   0.000000
   60        6.613841   0.000000
   61        7.297858   0.000000
   62        7.301745   0.000000
   63        7.302168   0.000000
   64        7.310506   0.000000
   65        7.929954   0.000000
   66        7.933593   0.000000
   67        7.935345   0.000000
   68        7.936656   0.000000
   69        8.626382   0.000000
   70        8.629988   0.000000
   71        8.630106   0.000000
   72        8.631051   0.000000
   73        8.855406   0.000000
   74        8.876478   0.000000
   75        8.877161   0.000000
   76        8.879484   0.000000
   77        9.208098   0.000000
   78        9.213343   0.000000
   79        9.215045   0.000000
   80        9.218495   0.000000
   81        9.536207   0.000000
   82        9.537536   0.000000
   83        9.537917   0.000000
   84        9.540392   0.000000
   85        9.654727   0.000000
   86        9.657642   0.000000
   87        9.658219   0.000000
   88        9.661774   0.000000
   89        9.978023   0.000000
   90        9.991541   0.000000
   91        9.999370   0.000000
   92        9.999600   0.000000
   93       10.098163   0.000000
   94       10.104481   0.000000
   95       10.105383   0.000000
   96       10.107098   0.000000
   97       10.383128   0.000000
   98       10.389447   0.000000
   99       10.393577   0.000000
  100       10.399172   0.000000
  101       10.837984   0.000000
  102       10.840105   0.000000
  103       10.841841   0.000000
  104       10.841970   0.000000
  105       10.967265   0.000000
  106       10.972453   0.000000
  107       10.981024   0.000000
  108       10.983395   0.000000
  109       11.606272   0.000000
  110       11.608694   0.000000
  111       11.610125   0.000000
  112       11.611182   0.000000
  113       12.047419   0.000000
  114       12.049398   0.000000
  115       12.049494   0.000000
  116       12.051995   0.000000
  117       12.417222   0.000000
  118       12.419597   0.000000
  119       12.423970   0.000000
  120       12.427693   0.000000
  121       12.749217   0.000000
  122       12.752327   0.000000
  123       12.752350   0.000000
  124       12.754801   0.000000
  125       13.265212   0.000000
  126       13.266185   0.000000
  127       13.267647   0.000000
  128       13.268854   0.000000
  129       13.670026   0.000000
  130       13.672902   0.000000
  131       13.672940   0.000000
  132       13.674718   0.000000
  133       14.088004   0.000000
  134       14.092780   0.000000
  135       14.093155   0.000000
  136       14.096867   0.000000
  137       14.527172   0.000000
  138       14.535022   0.000000
  139       14.536923   0.000000
  140       14.540294   0.000000
  141       14.695300   0.000000
  142       14.698474   0.000000
  143       14.720786   0.000000
  144       14.774873   0.000000
 
  0.5000000E+00  0.2000000E+00  0.0000000E+00  0.4901961E-02
    1      -15.632051   1.000000
    2      -15.631428   1.000000
    3      -15.629398   1.000000
    4      -15.628508   1.000000
    5      -10.991564   1.000000
    6      -10.991150   1.000000
    7      -10.989000   1.000000
    8      -10.988288   1.000000
    9       -6.975613   1.000000
   10       -6.975336   1.000000
   11       -6.962122   1.000000
   12       -6.950140   1.000000
   13       -5.940539   1.000000
   14       -5.932742   1.000000
   15       -5.913050   1.000000
   16       -5.896878   1.000000
   17       -4.309939   1.000000
   18       -4.300296   1.000000
   19       -4.271353   1.000000
   20       -4.266636   1.000000
   21       -1.047073   0.000000
   22       -1.006482   0.000000
   23       -0.997833   0.000000
   24       -0.979220   0.000000
   25        0.669552   0.000000
   26        0.674377   0.000000
   27        0.699975   0.000000
   28        0.723872   0.000000
   29        1.010754   0.000000
   30        1.021350   0.000000
   31        1.026127   0.000000
   32        1.026643   0.000000
   33        3.488454   0.000000
   34        3.496807   0.000000
   35        3.497154   0.000000
   36        3.497460   0.000000
   37        4.585992   0.000000
   38        4.594819   0.000000
   39        4.596152   0.000000
   40        4.598825   0.000000
   41        4.955268   0.000000
   42        4.956257   0.000000
   43        4.958273   0.000000
   44        4.958509   0.000000
   45        5.167737   0.000000
   46        5.171454   0.000000
   47        5.173495   0.000000
   48        5.173807   0.000000
   49        5.695283   0.000000
   50        5.698004   0.000000
   51        5.698087   0.000000
   52        5.699872   0.000000
   53        6.220620   0.000000
   54        6.221190   0.000000
   55        6.224684   0.000000
   56        6.225886   0.000000
   57        6.575148   0.000000
   58        6.576790   0.000000
   59        6.579725   0.000000
   60        6.581932   0.000000
   61        7.333187   0.000000
   62        7.337220   0.000000
   63        7.337672   0.000000
   64        7.345938   0.000000
   65        7.944612   0.000000
   66        7.948442   0.000000
   67        7.949984   0.000000
   68        7.951015   0.000000
   69        8.602367   0.000000
   70        8.612342   0.000000
   71        8.612438   0.000000
   72        8.613157   0.000000
   73        8.863321   0.000000
   74        8.875916   0.000000
   75        8.876475   0.000000
   76        8.879829   0.000000
   77        9.130656   0.000000
   78        9.132035   0.000000
   79        9.134982   0.000000
   80        9.138471   0.000000
   81        9.431247   0.000000
   82        9.431960   0.000000
   83        9.432880   0.000000
   84        9.435071   0.000000
   85        9.604997   0.000000
   86        9.606978   0.000000
   87        9.613115   0.000000
   88        9.614327   0.000000
   89        9.940171   0.000000
   90        9.955082   0.000000
   91        9.958351   0.000000
   92        9.962452   0.000000
   93       10.083445   0.000000
   94       10.083928   0.000000
   95       10.085205   0.000000
   96       10.087159   0.000000
   97       10.330192   0.000000
   98       10.334350   0.000000
   99       10.336840   0.000000
  100       10.343036   0.000000
  101       10.799449   0.000000
  102       10.800220   0.000000
  103       10.801120   0.000000
  104       10.801261   0.000000
  105       10.898858   0.000000
  106       10.902979   0.000000
  107       10.910376   0.000000
  108       10.914196   0.000000
  109       11.568647   0.000000
  110       11.570865   0.000000
  111       11.572344   0.000000
  112       11.572954   0.000000
  113       12.006372   0.000000
  114       12.009921   0.000000
  115       12.010161   0.000000
  116       12.010199   0.000000
  117       12.333462   0.000000
  118       12.336508   0.000000
  119       12.340515   0.000000
  120       12.344051   0.000000
  121       12.731203   0.000000
  122       12.735727   0.000000
  123       12.736252   0.000000
  124       12.738362   0.000000
  125       13.259033   0.000000
  126       13.260306   0.000000
  127       13.261433   0.000000
  128       13.263917   0.000000
  129       13.675887   0.000000
  130       13.676471   0.000000
  131       13.677418   0.000000
  132       13.679930   0.000000
  133       14.085171   0.000000
  134       14.089438   0.000000
  135       14.091950   0.000000
  136       14.094349   0.000000
  137       14.535997   0.000000
  138       14.537388   0.000000
  139       14.538072   0.000000
  140       14.543746   0.000000
  141       14.671687   0.000000
  142       14.673478   0.000000
  143       14.674938   0.000000
  144       14.713947   0.000000
 
  0.5000000E+00  0.2100000E+00  0.0000000E+00  0.4901961E-02
    1      -15.627668   1.000000
    2      -15.627064   1.000000
    3      -15.624890   1.000000
    4      -15.624013   1.000000
    5      -10.986418   1.000000
    6      -10.986048   1.000000
    7      -10.983744   1.000000
    8      -10.983063   1.000000
    9       -7.005156   1.000000
   10       -7.005009   1.000000
   11       -6.991516   1.000000
   12       -6.979265   1.000000
   13       -5.977979   1.000000
   14       -5.970415   1.000000
   15       -5.949816   1.000000
   16       -5.933552   1.000000
   17       -4.314983   1.000000
   18       -4.306066   1.000000
   19       -4.276152   1.000000
   20       -4.271210   1.000000
   21       -0.988490   0.000000
   22       -0.947221   0.000000
   23       -0.938350   0.000000
   24       -0.918410   0.000000
   25        0.672570   0.000000
   26        0.680442   0.000000
   27        0.703161   0.000000
   28        0.728199   0.000000
   29        1.105661   0.000000
   30        1.120913   0.000000
   31        1.125156   0.000000
   32        1.125222   0.000000
   33        3.477913   0.000000
   34        3.486670   0.000000
   35        3.487072   0.000000
   36        3.487316   0.000000
   37        4.607764   0.000000
   38        4.617009   0.000000
   39        4.618311   0.000000
   40        4.620743   0.000000
   41        4.975045   0.000000
   42        4.976511   0.000000
   43        4.978563   0.000000
   44        4.979103   0.000000
   45        5.184745   0.000000
   46        5.188356   0.000000
   47        5.190413   0.000000
   48        5.190711   0.000000
   49        5.703375   0.000000
   50        5.705360   0.000000
   51        5.706037   0.000000
   52        5.707340   0.000000
   53        6.232936   0.000000
   54        6.233514   0.000000
   55        6.236933   0.000000
   56        6.238326   0.000000
   57        6.548403   0.000000
   58        6.551078   0.000000
   59        6.553152   0.000000
   60        6.555598   0.000000
   61        7.368101   0.000000
   62        7.371934   0.000000
   63        7.373129   0.000000
   64        7.380932   0.000000
   65        7.959518   0.000000
   66        7.963431   0.000000
   67        7.964709   0.000000
   68        7.965506   0.000000
   69        8.542392   0.000000
   70        8.555571   0.000000
   71        8.556327   0.000000
   72        8.557684   0.000000
   73        8.898948   0.000000
   74        8.905588   0.000000
   75        8.905743   0.000000
   76        8.910506   0.000000
   77        9.051679   0.000000
   78        9.054141   0.000000
   79        9.055538   0.000000
   80        9.058393   0.000000
   81        9.324100   0.000000
   82        9.325747   0.000000
   83        9.326192   0.000000
   84        9.328633   0.000000
   85        9.560708   0.000000
   86        9.562963   0.000000
   87        9.572053   0.000000
   88        9.572271   0.000000
   89        9.875600   0.000000
   90        9.884532   0.000000
   91        9.895356   0.000000
   92        9.895449   0.000000
   93       10.086208   0.000000
   94       10.089998   0.000000
   95       10.090852   0.000000
   96       10.090943   0.000000
   97       10.274797   0.000000
   98       10.276215   0.000000
   99       10.277301   0.000000
  100       10.284029   0.000000
  101       10.766060   0.000000
  102       10.767454   0.000000
  103       10.768611   0.000000
  104       10.769434   0.000000
  105       10.840491   0.000000
  106       10.841478   0.000000
  107       10.846395   0.000000
  108       10.851944   0.000000
  109       11.521019   0.000000
  110       11.523343   0.000000
  111       11.524407   0.000000
  112       11.524966   0.000000
  113       11.967724   0.000000
  114       11.970244   0.000000
  115       11.972721   0.000000
  116       11.972757   0.000000
  117       12.252077   0.000000
  118       12.255915   0.000000
  119       12.259410   0.000000
  120       12.262470   0.000000
  121       12.717431   0.000000
  122       12.723225   0.000000
  123       12.724441   0.000000
  124       12.726000   0.000000
  125       13.254088   0.000000
  126       13.255449   0.000000
  127       13.256112   0.000000
  128       13.259755   0.000000
  129       13.668052   0.000000
  130       13.670720   0.000000
  131       13.671112   0.000000
  132       13.674051   0.000000
  133       14.086904   0.000000
  134       14.089659   0.000000
  135       14.092988   0.000000
  136       14.094414   0.000000
  137       14.475268   0.000000
  138       14.477413   0.000000
  139       14.479190   0.000000
  140       14.482512   0.000000
  141       14.698921   0.000000
  142       14.702728   0.000000
  143       14.704189   0.000000
  144       14.739098   0.000000
 
  0.5000000E+00  0.2200000E+00  0.0000000E+00  0.4901961E-02
    1      -15.623196   1.000000
    2      -15.622612   1.000000
    3      -15.620295   1.000000
    4      -15.619434   1.000000
    5      -10.981208   1.000000
    6      -10.980883   1.000000
    7      -10.978429   1.000000
    8      -10.977779   1.000000
    9       -7.034166   1.000000
   10       -7.034151   1.000000
   11       -7.020415   1.000000
   12       -7.007920   1.000000
   13       -6.016068   1.000000
   14       -6.008770   1.000000
   15       -5.987289   1.000000
   16       -5.970957   1.000000
   17       -4.320279   1.000000
   18       -4.312052   1.000000
   19       -4.281233   1.000000
   20       -4.276137   1.000000
   21       -0.927361   0.000000
   22       -0.885266   0.000000
   23       -0.876160   0.000000
   24       -0.854951   0.000000
   25        0.675347   0.000000
   26        0.685104   0.000000
   27        0.706349   0.000000
   28        0.732564   0.000000
   29        1.202442   0.000000
   30        1.220910   0.000000
   31        1.224561   0.000000
   32        1.224715   0.000000
   33        3.468300   0.000000
   34        3.477450   0.000000
   35        3.477877   0.000000
   36        3.478039   0.000000
   37        4.631068   0.000000
   38        4.640713   0.000000
   39        4.642000   0.000000
   40        4.644151   0.000000
   41        4.994374   0.000000
   42        4.996352   0.000000
   43        4.998438   0.000000
   44        4.999328   0.000000
   45        5.204183   0.000000
   46        5.207567   0.000000
   47        5.209639   0.000000
   48        5.209880   0.000000
   49        5.709470   0.000000
   50        5.710635   0.000000
   51        5.711851   0.000000
   52        5.712609   0.000000
   53        6.243841   0.000000
   54        6.245668   0.000000
   55        6.248332   0.000000
   56        6.250012   0.000000
   57        6.528822   0.000000
   58        6.532306   0.000000
   59        6.533257   0.000000
   60        6.536267   0.000000
   61        7.402373   0.000000
   62        7.406081   0.000000
   63        7.407910   0.000000
   64        7.415264   0.000000
   65        7.973893   0.000000
   66        7.977757   0.000000
   67        7.978687   0.000000
   68        7.979319   0.000000
   69        8.468801   0.000000
   70        8.482741   0.000000
   71        8.484406   0.000000
   72        8.485953   0.000000
   73        8.904452   0.000000
   74        8.904822   0.000000
   75        8.908658   0.000000
   76        8.909558   0.000000
   77        9.011361   0.000000
   78        9.011758   0.000000
   79        9.011866   0.000000
   80        9.015034   0.000000
   81        9.221769   0.000000
   82        9.223451   0.000000
   83        9.223605   0.000000
   84        9.226992   0.000000
   85        9.515431   0.000000
   86        9.519054   0.000000
   87        9.528591   0.000000
   88        9.529077   0.000000
   89        9.805642   0.000000
   90        9.811879   0.000000
   91        9.824089   0.000000
   92        9.826639   0.000000
   93       10.080824   0.000000
   94       10.083952   0.000000
   95       10.085962   0.000000
   96       10.086270   0.000000
   97       10.227262   0.000000
   98       10.227598   0.000000
   99       10.230309   0.000000
  100       10.235319   0.000000
  101       10.725499   0.000000
  102       10.730020   0.000000
  103       10.735138   0.000000
  104       10.737017   0.000000
  105       10.797761   0.000000
  106       10.798660   0.000000
  107       10.801655   0.000000
  108       10.805392   0.000000
  109       11.467156   0.000000
  110       11.469924   0.000000
  111       11.470220   0.000000
  112       11.470996   0.000000
  113       11.927984   0.000000
  114       11.928695   0.000000
  115       11.933510   0.000000
  116       11.934062   0.000000
  117       12.173261   0.000000
  118       12.177975   0.000000
  119       12.180838   0.000000
  120       12.183122   0.000000
  121       12.709884   0.000000
  122       12.716690   0.000000
  123       12.718652   0.000000
  124       12.719601   0.000000
  125       13.249195   0.000000
  126       13.250459   0.000000
  127       13.250538   0.000000
  128       13.255116   0.000000
  129       13.643941   0.000000
  130       13.648616   0.000000
  131       13.651139   0.000000
  132       13.652885   0.000000
  133       14.103573   0.000000
  134       14.104458   0.000000
  135       14.108935   0.000000
  136       14.109384   0.000000
  137       14.399655   0.000000
  138       14.402812   0.000000
  139       14.404296   0.000000
  140       14.408161   0.000000
  141       14.701893   0.000000
  142       14.712219   0.000000
  143       14.712371   0.000000
  144       14.742284   0.000000
 
  0.5000000E+00  0.2300000E+00  0.0000000E+00  0.4901961E-02
    1      -15.618652   1.000000
    2      -15.618088   1.000000
    3      -15.615630   1.000000
    4      -15.614785   1.000000
    5      -10.975959   1.000000
    6      -10.975677   1.000000
    7      -10.973078   1.000000
    8      -10.972458   1.000000
    9       -7.062609   1.000000
   10       -7.062492   1.000000
   11       -7.048666   1.000000
   12       -7.035951   1.000000
   13       -6.054736   1.000000
   14       -6.047731   1.000000
   15       -6.025393   1.000000
   16       -6.009016   1.000000
   17       -4.325705   1.000000
   18       -4.318130   1.000000
   19       -4.286470   1.000000
   20       -4.281284   1.000000
   21       -0.864120   0.000000
   22       -0.821052   0.000000
   23       -0.811693   0.000000
   24       -0.789269   0.000000
   25        0.678198   0.000000
   26        0.689171   0.000000
   27        0.709709   0.000000
   28        0.737185   0.000000
   29        1.300074   0.000000
   30        1.320955   0.000000
   31        1.324147   0.000000
   32        1.324378   0.000000
   33        3.459822   0.000000
   34        3.469353   0.000000
   35        3.469756   0.000000
   36        3.469846   0.000000
   37        4.655870   0.000000
   38        4.665895   0.000000
   39        4.667193   0.000000
   40        4.669016   0.000000
   41        5.012890   0.000000
   42        5.015379   0.000000
   43        5.017505   0.000000
   44        5.018777   0.000000
   45        5.226036   0.000000
   46        5.229080   0.000000
   47        5.231172   0.000000
   48        5.231307   0.000000
   49        5.713341   0.000000
   50        5.713689   0.000000
   51        5.715300   0.000000
   52        5.715503   0.000000
   53        6.253761   0.000000
   54        6.256812   0.000000
   55        6.258689   0.000000
   56        6.260753   0.000000
   57        6.517460   0.000000
   58        6.521159   0.000000
   59        6.521492   0.000000
   60        6.524957   0.000000
   61        7.435713   0.000000
   62        7.439393   0.000000
   63        7.441745   0.000000
   64        7.448645   0.000000
   65        7.986308   0.000000
   66        7.989926   0.000000
   67        7.990407   0.000000
   68        7.990982   0.000000
   69        8.392595   0.000000
   70        8.406208   0.000000
   71        8.409062   0.000000
   72        8.410584   0.000000
   73        8.832217   0.000000
   74        8.832860   0.000000
   75        8.833402   0.000000
   76        8.838042   0.000000
   77        9.017087   0.000000
   78        9.020911   0.000000
   79        9.022136   0.000000
   80        9.023887   0.000000
   81        9.146139   0.000000
   82        9.146478   0.000000
   83        9.147573   0.000000
   84        9.151454   0.000000
   85        9.464320   0.000000
   86        9.469988   0.000000
   87        9.477588   0.000000
   88        9.479365   0.000000
   89        9.740008   0.000000
   90        9.745010   0.000000
   91        9.757454   0.000000
   92        9.761741   0.000000
   93       10.043439   0.000000
   94       10.044529   0.000000
   95       10.046916   0.000000
   96       10.048437   0.000000
   97       10.205017   0.000000
   98       10.207510   0.000000
   99       10.213434   0.000000
  100       10.215335   0.000000
  101       10.677473   0.000000
  102       10.682904   0.000000
  103       10.690912   0.000000
  104       10.691581   0.000000
  105       10.776979   0.000000
  106       10.777065   0.000000
  107       10.782585   0.000000
  108       10.783662   0.000000
  109       11.410634   0.000000
  110       11.413424   0.000000
  111       11.414146   0.000000
  112       11.414587   0.000000
  113       11.883647   0.000000
  114       11.885150   0.000000
  115       11.890536   0.000000
  116       11.891647   0.000000
  117       12.097027   0.000000
  118       12.102628   0.000000
  119       12.104776   0.000000
  120       12.106027   0.000000
  121       12.709021   0.000000
  122       12.716510   0.000000
  123       12.719182   0.000000
  124       12.719550   0.000000
  125       13.242985   0.000000
  126       13.243354   0.000000
  127       13.244007   0.000000
  128       13.248521   0.000000
  129       13.606815   0.000000
  130       13.612803   0.000000
  131       13.617545   0.000000
  132       13.618291   0.000000
  133       14.131745   0.000000
  134       14.132240   0.000000
  135       14.135782   0.000000
  136       14.136465   0.000000
  137       14.330579   0.000000
  138       14.332886   0.000000
  139       14.335615   0.000000
  140       14.340606   0.000000
  141       14.668154   0.000000
  142       14.676972   0.000000
  143       14.681165   0.000000
  144       14.683202   0.000000
 
  0.5000000E+00  0.2400000E+00  0.0000000E+00  0.4901961E-02
    1      -15.614055   1.000000
    2      -15.613510   1.000000
    3      -15.610913   1.000000
    4      -15.610085   1.000000
    5      -10.970694   1.000000
    6      -10.970455   1.000000
    7      -10.967713   1.000000
    8      -10.967125   1.000000
    9       -7.090240   1.000000
   10       -7.089993   1.000000
   11       -7.076126   1.000000
   12       -7.063214   1.000000
   13       -6.093903   1.000000
   14       -6.087215   1.000000
   15       -6.064045   1.000000
   16       -6.047645   1.000000
   17       -4.331145   1.000000
   18       -4.324184   1.000000
   19       -4.291751   1.000000
   20       -4.286529   1.000000
   21       -0.799227   0.000000
   22       -0.755042   0.000000
   23       -0.745398   0.000000
   24       -0.721812   0.000000
   25        0.681341   0.000000
   26        0.693097   0.000000
   27        0.713380   0.000000
   28        0.742222   0.000000
   29        1.397893   0.000000
   30        1.420696   0.000000
   31        1.423566   0.000000
   32        1.423780   0.000000
   33        3.452680   0.000000
   34        3.462578   0.000000
   35        3.462830   0.000000
   36        3.463005   0.000000
   37        4.682116   0.000000
   38        4.692501   0.000000
   39        4.693841   0.000000
   40        4.695285   0.000000
   41        5.030180   0.000000
   42        5.033125   0.000000
   43        5.035314   0.000000
   44        5.036975   0.000000
   45        5.250281   0.000000
   46        5.252883   0.000000
   47        5.254987   0.000000
   48        5.255006   0.000000
   49        5.714470   0.000000
   50        5.715116   0.000000
   51        5.715987   0.000000
   52        5.716487   0.000000
   53        6.263015   0.000000
   54        6.267079   0.000000
   55        6.268283   0.000000
   56        6.270793   0.000000
   57        6.514672   0.000000
   58        6.517394   0.000000
   59        6.518981   0.000000
   60        6.522013   0.000000
   61        7.467718   0.000000
   62        7.471496   0.000000
   63        7.474236   0.000000
   64        7.480659   0.000000
   65        7.993996   0.000000
   66        7.997004   0.000000
   67        7.997019   0.000000
   68        7.997704   0.000000
   69        8.320508   0.000000
   70        8.333102   0.000000
   71        8.337623   0.000000
   72        8.338890   0.000000
   73        8.739057   0.000000
   74        8.741656   0.000000
   75        8.741841   0.000000
   76        8.745882   0.000000
   77        8.961356   0.000000
   78        8.961615   0.000000
   79        8.964114   0.000000
   80        8.965262   0.000000
   81        9.153858   0.000000
   82        9.154203   0.000000
   83        9.156632   0.000000
   84        9.160306   0.000000
   85        9.404573   0.000000
   86        9.412369   0.000000
   87        9.416050   0.000000
   88        9.419600   0.000000
   89        9.683185   0.000000
   90        9.686964   0.000000
   91        9.699444   0.000000
   92        9.704090   0.000000
   93        9.980222   0.000000
   94        9.981214   0.000000
   95        9.981660   0.000000
   96        9.984291   0.000000
   97       10.202258   0.000000
   98       10.206609   0.000000
   99       10.212965   0.000000
  100       10.214069   0.000000
  101       10.632616   0.000000
  102       10.637643   0.000000
  103       10.645354   0.000000
  104       10.646010   0.000000
  105       10.768885   0.000000
  106       10.769946   0.000000
  107       10.774371   0.000000
  108       10.776747   0.000000
  109       11.354370   0.000000
  110       11.356991   0.000000
  111       11.358619   0.000000
  112       11.358823   0.000000
  113       11.834920   0.000000
  114       11.838844   0.000000
  115       11.843546   0.000000
  116       11.845156   0.000000
  117       12.023355   0.000000
  118       12.029770   0.000000
  119       12.031156   0.000000
  120       12.031202   0.000000
  121       12.713855   0.000000
  122       12.721699   0.000000
  123       12.724841   0.000000
  124       12.725005   0.000000
  125       13.233063   0.000000
  126       13.233922   0.000000
  127       13.234641   0.000000
  128       13.238289   0.000000
  129       13.562671   0.000000
  130       13.568793   0.000000
  131       13.575753   0.000000
  132       13.575818   0.000000
  133       14.146273   0.000000
  134       14.148490   0.000000
  135       14.148955   0.000000
  136       14.149176   0.000000
  137       14.293216   0.000000
  138       14.296003   0.000000
  139       14.298469   0.000000
  140       14.304772   0.000000
  141       14.609796   0.000000
  142       14.618365   0.000000
  143       14.619754   0.000000
  144       14.628458   0.000000
 
  0.5000000E+00  0.2500000E+00  0.0000000E+00  0.4901961E-02
    1      -15.609423   1.000000
    2      -15.608899   1.000000
    3      -15.606164   1.000000
    4      -15.605355   1.000000
    5      -10.965436   1.000000
    6      -10.965239   1.000000
    7      -10.962359   1.000000
    8      -10.961803   1.000000
    9       -7.116914   1.000000
   10       -7.116540   1.000000
   11       -7.102661   1.000000
   12       -7.089577   1.000000
   13       -6.133484   1.000000
   14       -6.127128   1.000000
   15       -6.103152   1.000000
   16       -6.086751   1.000000
   17       -4.336503   1.000000
   18       -4.330117   1.000000
   19       -4.296976   1.000000
   20       -4.291769   1.000000
   21       -0.733156   0.000000
   22       -0.687719   0.000000
   23       -0.677748   0.000000
   24       -0.653053   0.000000
   25        0.684972   0.000000
   26        0.697200   0.000000
   27        0.717501   0.000000
   28        0.747828   0.000000
   29        1.495393   0.000000
   30        1.519797   0.000000
   31        1.522447   0.000000
   32        1.522580   0.000000
   33        3.447068   0.000000
   34        3.457307   0.000000
   35        3.457315   0.000000
   36        3.457683   0.000000
   37        4.709729   0.000000
   38        4.720448   0.000000
   39        4.721876   0.000000
   40        4.722877   0.000000
   41        5.045799   0.000000
   42        5.049071   0.000000
   43        5.051370   0.000000
   44        5.053389   0.000000
   45        5.276875   0.000000
   46        5.278960   0.000000
   47        5.280915   0.000000
   48        5.281125   0.000000
   49        5.713531   0.000000
   50        5.714558   0.000000
   51        5.714919   0.000000
   52        5.715650   0.000000
   53        6.272403   0.000000
   54        6.277114   0.000000
   55        6.277916   0.000000
   56        6.280860   0.000000
   57        6.519995   0.000000
   58        6.521695   0.000000
   59        6.524375   0.000000
   60        6.527004   0.000000
   61        7.497734   0.000000
   62        7.501786   0.000000
   63        7.504718   0.000000
   64        7.510615   0.000000
   65        7.991737   0.000000
   66        7.993370   0.000000
   67        7.993564   0.000000
   68        7.994374   0.000000
   69        8.260087   0.000000
   70        8.270859   0.000000
   71        8.277549   0.000000
   72        8.278263   0.000000
   73        8.642409   0.000000
   74        8.645647   0.000000
   75        8.646471   0.000000
   76        8.649464   0.000000
   77        8.864248   0.000000
   78        8.866024   0.000000
   79        8.867451   0.000000
   80        8.868237   0.000000
   81        9.197557   0.000000
   82        9.199399   0.000000
   83        9.199882   0.000000
   84        9.208282   0.000000
   85        9.338035   0.000000
   86        9.345772   0.000000
   87        9.347841   0.000000
   88        9.350906   0.000000
   89        9.635601   0.000000
   90        9.636876   0.000000
   91        9.650277   0.000000
   92        9.653292   0.000000
   93        9.909501   0.000000
   94        9.910436   0.000000
   95        9.911980   0.000000
   96        9.912989   0.000000
   97       10.197943   0.000000
   98       10.203324   0.000000
   99       10.208915   0.000000
  100       10.210127   0.000000
  101       10.599837   0.000000
  102       10.604561   0.000000
  103       10.610150   0.000000
  104       10.612057   0.000000
  105       10.765774   0.000000
  106       10.768307   0.000000
  107       10.771946   0.000000
  108       10.774661   0.000000
  109       11.300800   0.000000
  110       11.303369   0.000000
  111       11.305488   0.000000
  112       11.306294   0.000000
  113       11.783395   0.000000
  114       11.789791   0.000000
  115       11.793414   0.000000
  116       11.795435   0.000000
  117       11.952347   0.000000
  118       11.958780   0.000000
  119       11.959447   0.000000
  120       11.960031   0.000000
  121       12.722354   0.000000
  122       12.730285   0.000000
  123       12.733469   0.000000
  124       12.734140   0.000000
  125       13.218186   0.000000
  126       13.220402   0.000000
  127       13.220940   0.000000
  128       13.222718   0.000000
  129       13.517297   0.000000
  130       13.522275   0.000000
  131       13.530941   0.000000
  132       13.531295   0.000000
  133       14.113310   0.000000
  134       14.114151   0.000000
  135       14.115066   0.000000
  136       14.116258   0.000000
  137       14.317011   0.000000
  138       14.323293   0.000000
  139       14.324108   0.000000
  140       14.328514   0.000000
  141       14.541191   0.000000
  142       14.548876   0.000000
  143       14.550255   0.000000
  144       14.554855   0.000000
 
  0.5000000E+00  0.2600000E+00  0.0000000E+00  0.4901961E-02
    1      -15.604773   1.000000
    2      -15.604269   1.000000
    3      -15.601397   1.000000
    4      -15.600609   1.000000
    5      -10.960207   1.000000
    6      -10.960052   1.000000
    7      -10.957038   1.000000
    8      -10.956514   1.000000
    9       -7.142507   1.000000
   10       -7.142012   1.000000
   11       -7.128149   1.000000
   12       -7.114917   1.000000
   13       -6.173382   1.000000
   14       -6.167370   1.000000
   15       -6.142610   1.000000
   16       -6.126230   1.000000
   17       -4.341695   1.000000
   18       -4.335848   1.000000
   19       -4.302061   1.000000
   20       -4.296912   1.000000
   21       -0.666395   0.000000
   22       -0.619586   0.000000
   23       -0.609228   0.000000
   24       -0.583483   0.000000
   25        0.689291   0.000000
   26        0.701743   0.000000
   27        0.722230   0.000000
   28        0.754164   0.000000
   29        1.592128   0.000000
   30        1.617913   0.000000
   31        1.620426   0.000000
   32        1.620427   0.000000
   33        3.443171   0.000000
   34        3.453393   0.000000
   35        3.453746   0.000000
   36        3.454038   0.000000
   37        4.738595   0.000000
   38        4.749616   0.000000
   39        4.751191   0.000000
   40        4.751672   0.000000
   41        5.059297   0.000000
   42        5.062675   0.000000
   43        5.065171   0.000000
   44        5.067461   0.000000
   45        5.305765   0.000000
   46        5.307284   0.000000
   47        5.309073   0.000000
   48        5.309502   0.000000
   49        5.711523   0.000000
   50        5.711936   0.000000
   51        5.713471   0.000000
   52        5.713560   0.000000
   53        6.282971   0.000000
   54        6.287906   0.000000
   55        6.288670   0.000000
   56        6.291954   0.000000
   57        6.532348   0.000000
   58        6.533151   0.000000
   59        6.536670   0.000000
   60        6.538920   0.000000
   61        7.524622   0.000000
   62        7.529207   0.000000
   63        7.532001   0.000000
   64        7.537292   0.000000
   65        7.972303   0.000000
   66        7.972389   0.000000
   67        7.973077   0.000000
   68        7.974440   0.000000
   69        8.220201   0.000000
   70        8.228379   0.000000
   71        8.237053   0.000000
   72        8.237103   0.000000
   73        8.544775   0.000000
   74        8.548463   0.000000
   75        8.549721   0.000000
   76        8.551745   0.000000
   77        8.761632   0.000000
   78        8.764159   0.000000
   79        8.765043   0.000000
   80        8.765740   0.000000
   81        9.215498   0.000000
   82        9.217336   0.000000
   83        9.223834   0.000000
   84        9.229465   0.000000
   85        9.291666   0.000000
   86        9.293272   0.000000
   87        9.293913   0.000000
   88        9.299941   0.000000
   89        9.591481   0.000000
   90        9.594756   0.000000
   91        9.606226   0.000000
   92        9.606840   0.000000
   93        9.841795   0.000000
   94        9.845148   0.000000
   95        9.845510   0.000000
   96        9.847072   0.000000
   97       10.180821   0.000000
   98       10.186535   0.000000
   99       10.190822   0.000000
  100       10.192242   0.000000
  101       10.584666   0.000000
  102       10.589518   0.000000
  103       10.592052   0.000000
  104       10.595560   0.000000
  105       10.764308   0.000000
  106       10.768299   0.000000
  107       10.771301   0.000000
  108       10.774186   0.000000
  109       11.252125   0.000000
  110       11.254782   0.000000
  111       11.257356   0.000000
  112       11.258617   0.000000
  113       11.730370   0.000000
  114       11.739160   0.000000
  115       11.741446   0.000000
  116       11.743802   0.000000
  117       11.884364   0.000000
  118       11.889179   0.000000
  119       11.891714   0.000000
  120       11.891927   0.000000
  121       12.731914   0.000000
  122       12.739725   0.000000
  123       12.742885   0.000000
  124       12.744069   0.000000
  125       13.197644   0.000000
  126       13.200597   0.000000
  127       13.201057   0.000000
  128       13.201848   0.000000
  129       13.474699   0.000000
  130       13.477572   0.000000
  131       13.487613   0.000000
  132       13.488140   0.000000
  133       14.056304   0.000000
  134       14.058314   0.000000
  135       14.058652   0.000000
  136       14.059558   0.000000
  137       14.369402   0.000000
  138       14.371763   0.000000
  139       14.376115   0.000000
  140       14.376457   0.000000
  141       14.485099   0.000000
  142       14.489362   0.000000
  143       14.491645   0.000000
  144       14.491591   0.000000
 
  0.5000000E+00  0.2700000E+00  0.0000000E+00  0.4901961E-02
    1      -15.600124   1.000000
    2      -15.599641   1.000000
    3      -15.596635   1.000000
    4      -15.595868   1.000000
    5      -10.955031   1.000000
    6      -10.954916   1.000000
    7      -10.951774   1.000000
    8      -10.951281   1.000000
    9       -7.166914   1.000000
   10       -7.166304   1.000000
   11       -7.152483   1.000000
   12       -7.139129   1.000000
   13       -6.213495   1.000000
   14       -6.207834   1.000000
   15       -6.182311   1.000000
   16       -6.165976   1.000000
   17       -4.346659   1.000000
   18       -4.341312   1.000000
   19       -4.306941   1.000000
   20       -4.301886   1.000000
   21       -0.599454   0.000000
   22       -0.551181   0.000000
   23       -0.540355   0.000000
   24       -0.513630   0.000000
   25        0.694519   0.000000
   26        0.706985   0.000000
   27        0.727746   0.000000
   28        0.761411   0.000000
   29        1.687679   0.000000
   30        1.714680   0.000000
   31        1.716956   0.000000
   32        1.717131   0.000000
   33        3.441160   0.000000
   34        3.451255   0.000000
   35        3.452041   0.000000
   36        3.452238   0.000000
   37        4.768548   0.000000
   38        4.779827   0.000000
   39        4.781486   0.000000
   40        4.781629   0.000000
   41        5.070270   0.000000
   42        5.073431   0.000000
   43        5.076260   0.000000
   44        5.078664   0.000000
   45        5.336875   0.000000
   46        5.337811   0.000000
   47        5.339431   0.000000
   48        5.340094   0.000000
   49        5.709215   0.000000
   50        5.709479   0.000000
   51        5.711258   0.000000
   52        5.711706   0.000000
   53        6.295647   0.000000
   54        6.300435   0.000000
   55        6.301509   0.000000
   56        6.304990   0.000000
   57        6.550422   0.000000
   58        6.550535   0.000000
   59        6.554628   0.000000
   60        6.556521   0.000000
   61        7.546266   0.000000
   62        7.551749   0.000000
   63        7.553809   0.000000
   64        7.558384   0.000000
   65        7.932703   0.000000
   66        7.933761   0.000000
   67        7.935321   0.000000
   68        7.936711   0.000000
   69        8.203562   0.000000
   70        8.209566   0.000000
   71        8.218545   0.000000
   72        8.219154   0.000000
   73        8.447422   0.000000
   74        8.451636   0.000000
   75        8.453012   0.000000
   76        8.454036   0.000000
   77        8.658826   0.000000
   78        8.661728   0.000000
   79        8.662363   0.000000
   80        8.663005   0.000000
   81        9.152583   0.000000
   82        9.156470   0.000000
   83        9.160210   0.000000
   84        9.163652   0.000000
   85        9.301217   0.000000
   86        9.310942   0.000000
   87        9.311169   0.000000
   88        9.314482   0.000000
   89        9.548963   0.000000
   90        9.558231   0.000000
   91        9.560010   0.000000
   92        9.565088   0.000000
   93        9.787750   0.000000
   94        9.788889   0.000000
   95        9.793849   0.000000
   96        9.794097   0.000000
   97       10.147871   0.000000
   98       10.153598   0.000000
   99       10.156423   0.000000
  100       10.157704   0.000000
  101       10.587160   0.000000
  102       10.591535   0.000000
  103       10.592398   0.000000
  104       10.596791   0.000000
  105       10.762668   0.000000
  106       10.767923   0.000000
  107       10.770358   0.000000
  108       10.773396   0.000000
  109       11.210477   0.000000
  110       11.213386   0.000000
  111       11.216304   0.000000
  112       11.217717   0.000000
  113       11.677133   0.000000
  114       11.688132   0.000000
  115       11.688933   0.000000
  116       11.691570   0.000000
  117       11.820099   0.000000
  118       11.823081   0.000000
  119       11.826855   0.000000
  120       11.827851   0.000000
  121       12.739645   0.000000
  122       12.747147   0.000000
  123       12.750258   0.000000
  124       12.751965   0.000000
  125       13.171241   0.000000
  126       13.171910   0.000000
  127       13.175212   0.000000
  128       13.177139   0.000000
  129       13.436760   0.000000
  130       13.437287   0.000000
  131       13.447898   0.000000
  132       13.448461   0.000000
  133       13.998673   0.000000
  134       14.000333   0.000000
  135       14.000786   0.000000
  136       14.001308   0.000000
  137       14.356950   0.000000
  138       14.357783   0.000000
  139       14.364363   0.000000
  140       14.364829   0.000000
  141       14.501206   0.000000
  142       14.507075   0.000000
  143       14.509390   0.000000
  144       14.510174   0.000000
 
  0.5000000E+00  0.2800000E+00  0.0000000E+00  0.4901961E-02
    1      -15.595493   1.000000
    2      -15.595031   1.000000
    3      -15.591894   1.000000
    4      -15.591149   1.000000
    5      -10.949930   1.000000
    6      -10.949852   1.000000
    7      -10.946587   1.000000
    8      -10.946126   1.000000
    9       -7.190036   1.000000
   10       -7.189318   1.000000
   11       -7.175564   1.000000
   12       -7.162114   1.000000
   13       -6.253713   1.000000
   14       -6.248407   1.000000
   15       -6.222139   1.000000
   16       -6.205872   1.000000
   17       -4.351341   1.000000
   18       -4.346460   1.000000
   19       -4.311562   1.000000
   20       -4.306631   1.000000
   21       -0.532855   0.000000
   22       -0.483066   0.000000
   23       -0.471664   0.000000
   24       -0.444044   0.000000
   25        0.700905   0.000000
   26        0.713195   0.000000
   27        0.734262   0.000000
   28        0.769769   0.000000
   29        1.781626   0.000000
   30        1.809718   0.000000
   31        1.811788   0.000000
   32        1.812171   0.000000
   33        3.441201   0.000000
   34        3.451053   0.000000
   35        3.452360   0.000000
   36        3.452449   0.000000
   37        4.799337   0.000000
   38        4.810804   0.000000
   39        4.812040   0.000000
   40        4.812945   0.000000
   41        5.078453   0.000000
   42        5.080974   0.000000
   43        5.084339   0.000000
   44        5.086614   0.000000
   45        5.370120   0.000000
   46        5.370481   0.000000
   47        5.371940   0.000000
   48        5.372836   0.000000
   49        5.707680   0.000000
   50        5.708598   0.000000
   51        5.709988   0.000000
   52        5.710765   0.000000
   53        6.311029   0.000000
   54        6.315406   0.000000
   55        6.317055   0.000000
   56        6.320585   0.000000
   57        6.572637   0.000000
   58        6.573007   0.000000
   59        6.577074   0.000000
   60        6.578639   0.000000
   61        7.558719   0.000000
   62        7.565508   0.000000
   63        7.565789   0.000000
   64        7.569557   0.000000
   65        7.885502   0.000000
   66        7.885587   0.000000
   67        7.890105   0.000000
   68        7.890520   0.000000
   69        8.201473   0.000000
   70        8.207187   0.000000
   71        8.215926   0.000000
   72        8.216362   0.000000
   73        8.352328   0.000000
   74        8.357509   0.000000
   75        8.358030   0.000000
   76        8.358248   0.000000
   77        8.557501   0.000000
   78        8.560625   0.000000
   79        8.561142   0.000000
   80        8.561709   0.000000
   81        9.066403   0.000000
   82        9.071132   0.000000
   83        9.071575   0.000000
   84        9.076304   0.000000
   85        9.308351   0.000000
   86        9.321742   0.000000
   87        9.324527   0.000000
   88        9.325025   0.000000
   89        9.513277   0.000000
   90        9.516884   0.000000
   91        9.524438   0.000000
   92        9.526095   0.000000
   93        9.752462   0.000000
   94        9.755717   0.000000
   95        9.759884   0.000000
   96        9.762230   0.000000
   97       10.102122   0.000000
   98       10.107922   0.000000
   99       10.109425   0.000000
  100       10.110056   0.000000
  101       10.601464   0.000000
  102       10.603154   0.000000
  103       10.606962   0.000000
  104       10.609642   0.000000
  105       10.760516   0.000000
  106       10.766510   0.000000
  107       10.768601   0.000000
  108       10.771624   0.000000
  109       11.177836   0.000000
  110       11.181161   0.000000
  111       11.184253   0.000000
  112       11.185311   0.000000
  113       11.624783   0.000000
  114       11.636946   0.000000
  115       11.637666   0.000000
  116       11.639812   0.000000
  117       11.760630   0.000000
  118       11.761596   0.000000
  119       11.766501   0.000000
  120       11.768183   0.000000
  121       12.742651   0.000000
  122       12.749587   0.000000
  123       12.752748   0.000000
  124       12.754933   0.000000
  125       13.138032   0.000000
  126       13.139886   0.000000
  127       13.143288   0.000000
  128       13.147538   0.000000
  129       13.402523   0.000000
  130       13.403582   0.000000
  131       13.412402   0.000000
  132       13.413012   0.000000
  133       13.945656   0.000000
  134       13.946204   0.000000
  135       13.946907   0.000000
  136       13.947219   0.000000
  137       14.293113   0.000000
  138       14.295566   0.000000
  139       14.300303   0.000000
  140       14.302355   0.000000
  141       14.579818   0.000000
  142       14.587700   0.000000
  143       14.589589   0.000000
  144       14.591059   0.000000
 
  0.5000000E+00  0.2900000E+00  0.0000000E+00  0.4901961E-02
    1      -15.590904   1.000000
    2      -15.590463   1.000000
    3      -15.587196   1.000000
    4      -15.586475   1.000000
    5      -10.944925   1.000000
    6      -10.944884   1.000000
    7      -10.941502   1.000000
    8      -10.941072   1.000000
    9       -7.211792   1.000000
   10       -7.210975   1.000000
   11       -7.197309   1.000000
   12       -7.183791   1.000000
   13       -6.293921   1.000000
   14       -6.288972   1.000000
   15       -6.261971   1.000000
   16       -6.245797   1.000000
   17       -4.355706   1.000000
   18       -4.351257   1.000000
   19       -4.315886   1.000000
   20       -4.311106   1.000000
   21       -0.467147   0.000000
   22       -0.415841   0.000000
   23       -0.403725   0.000000
   24       -0.375319   0.000000
   25        0.708719   0.000000
   26        0.720656   0.000000
   27        0.742007   0.000000
   28        0.779446   0.000000
   29        1.873536   0.000000
   30        1.902612   0.000000
   31        1.904510   0.000000
   32        1.905131   0.000000
   33        3.443433   0.000000
   34        3.452923   0.000000
   35        3.454813   0.000000
   36        3.454839   0.000000
   37        4.830554   0.000000
   38        4.842094   0.000000
   39        4.842867   0.000000
   40        4.844724   0.000000
   41        5.083865   0.000000
   42        5.085233   0.000000
   43        5.089414   0.000000
   44        5.091222   0.000000
   45        5.405216   0.000000
   46        5.405401   0.000000
   47        5.406532   0.000000
   48        5.407649   0.000000
   49        5.708599   0.000000
   50        5.710068   0.000000
   51        5.711000   0.000000
   52        5.711824   0.000000
   53        6.329348   0.000000
   54        6.333161   0.000000
   55        6.335548   0.000000
   56        6.338997   0.000000
   57        6.598426   0.000000
   58        6.599092   0.000000
   59        6.603016   0.000000
   60        6.604286   0.000000
   61        7.555442   0.000000
   62        7.560709   0.000000
   63        7.563493   0.000000
   64        7.563886   0.000000
   65        7.842639   0.000000
   66        7.845880   0.000000
   67        7.849842   0.000000
   68        7.851766   0.000000
   69        8.193891   0.000000
   70        8.202810   0.000000
   71        8.208010   0.000000
   72        8.211031   0.000000
   73        8.271757   0.000000
   74        8.273409   0.000000
   75        8.274946   0.000000
   76        8.277244   0.000000
   77        8.459583   0.000000
   78        8.462810   0.000000
   79        8.463280   0.000000
   80        8.463703   0.000000
   81        8.975654   0.000000
   82        8.978706   0.000000
   83        8.980726   0.000000
   84        8.984216   0.000000
   85        9.285704   0.000000
   86        9.299209   0.000000
   87        9.302320   0.000000
   88        9.304300   0.000000
   89        9.484452   0.000000
   90        9.489494   0.000000
   91        9.489845   0.000000
   92        9.498574   0.000000
   93        9.741335   0.000000
   94        9.748753   0.000000
   95        9.748992   0.000000
   96        9.753448   0.000000
   97       10.048864   0.000000
   98       10.054851   0.000000
   99       10.054864   0.000000
  100       10.055292   0.000000
  101       10.617863   0.000000
  102       10.618395   0.000000
  103       10.623450   0.000000
  104       10.624318   0.000000
  105       10.760068   0.000000
  106       10.765608   0.000000
  107       10.768098   0.000000
  108       10.770441   0.000000
  109       11.155683   0.000000
  110       11.159535   0.000000
  111       11.162609   0.000000
  112       11.162622   0.000000
  113       11.574224   0.000000
  114       11.586322   0.000000
  115       11.588396   0.000000
  116       11.589318   0.000000
  117       11.706303   0.000000
  118       11.707402   0.000000
  119       11.712119   0.000000
  120       11.714226   0.000000
  121       12.738380   0.000000
  122       12.744351   0.000000
  123       12.747848   0.000000
  124       12.750355   0.000000
  125       13.100917   0.000000
  126       13.104848   0.000000
  127       13.106389   0.000000
  128       13.114087   0.000000
  129       13.373314   0.000000
  130       13.374473   0.000000
  131       13.381033   0.000000
  132       13.381859   0.000000
  133       13.896899   0.000000
  134       13.897825   0.000000
  135       13.897998   0.000000
  136       13.898120   0.000000
  137       14.229532   0.000000
  138       14.231792   0.000000
  139       14.235276   0.000000
  140       14.237801   0.000000
  141       14.673841   0.000000
  142       14.682231   0.000000
  143       14.683250   0.000000
  144       14.684954   0.000000
 
  0.5000000E+00  0.3000000E+00  0.0000000E+00  0.4901961E-02
    1      -15.586370   1.000000
    2      -15.585950   1.000000
    3      -15.582556   1.000000
    4      -15.581860   1.000000
    5      -10.940036   1.000000
    6      -10.940028   1.000000
    7      -10.936536   1.000000
    8      -10.936136   1.000000
    9       -7.232105   1.000000
   10       -7.231199   1.000000
   11       -7.217641   1.000000
   12       -7.204085   1.000000
   13       -6.333994   1.000000
   14       -6.329399   1.000000
   15       -6.301673   1.000000
   16       -6.285620   1.000000
   17       -4.359727   1.000000
   18       -4.355680   1.000000
   19       -4.319885   1.000000
   20       -4.315277   1.000000
   21       -0.402879   0.000000
   22       -0.350130   0.000000
   23       -0.337127   0.000000
   24       -0.308077   0.000000
   25        0.718284   0.000000
   26        0.729698   0.000000
   27        0.751260   0.000000
   28        0.790684   0.000000
   29        1.962974   0.000000
   30        1.992938   0.000000
   31        1.994699   0.000000
   32        1.995580   0.000000
   33        3.448004   0.000000
   34        3.457016   0.000000
   35        3.459481   0.000000
   36        3.459623   0.000000
   37        4.861512   0.000000
   38        4.872927   0.000000
   39        4.873179   0.000000
   40        4.876238   0.000000
   41        5.086700   0.000000
   42        5.087055   0.000000
   43        5.092050   0.000000
   44        5.092938   0.000000
   45        5.441928   0.000000
   46        5.442615   0.000000
   47        5.443128   0.000000
   48        5.444443   0.000000
   49        5.713047   0.000000
   50        5.714900   0.000000
   51        5.715368   0.000000
   52        5.715929   0.000000
   53        6.350563   0.000000
   54        6.353751   0.000000
   55        6.356948   0.000000
   56        6.360215   0.000000
   57        6.627062   0.000000
   58        6.627878   0.000000
   59        6.631651   0.000000
   60        6.632664   0.000000
   61        7.529945   0.000000
   62        7.532017   0.000000
   63        7.534917   0.000000
   64        7.538506   0.000000
   65        7.817174   0.000000
   66        7.824828   0.000000
   67        7.825758   0.000000
   68        7.830862   0.000000
   69        8.135753   0.000000
   70        8.141222   0.000000
   71        8.145062   0.000000
   72        8.147674   0.000000
   73        8.244017   0.000000
   74        8.245592   0.000000
   75        8.245790   0.000000
   76        8.247772   0.000000
   77        8.371919   0.000000
   78        8.374789   0.000000
   79        8.375122   0.000000
   80        8.375220   0.000000
   81        8.883263   0.000000
   82        8.885118   0.000000
   83        8.887949   0.000000
   84        8.890624   0.000000
   85        9.235672   0.000000
   86        9.243102   0.000000
   87        9.251209   0.000000
   88        9.251875   0.000000
   89        9.461005   0.000000
   90        9.462305   0.000000
   91        9.469781   0.000000
   92        9.471883   0.000000
   93        9.752381   0.000000
   94        9.759093   0.000000
   95        9.762077   0.000000
   96        9.763811   0.000000
   97        9.993600   0.000000
   98        9.997635   0.000000
   99        9.999185   0.000000
  100        9.999689   0.000000
  101       10.625338   0.000000
  102       10.627472   0.000000
  103       10.629948   0.000000
  104       10.630811   0.000000
  105       10.766516   0.000000
  106       10.769602   0.000000
  107       10.773791   0.000000
  108       10.774376   0.000000
  109       11.144517   0.000000
  110       11.148898   0.000000
  111       11.149994   0.000000
  112       11.151818   0.000000
  113       11.526317   0.000000
  114       11.537856   0.000000
  115       11.540743   0.000000
  116       11.540756   0.000000
  117       11.659269   0.000000
  118       11.662196   0.000000
  119       11.665595   0.000000
  120       11.667628   0.000000
  121       12.725233   0.000000
  122       12.729711   0.000000
  123       12.733982   0.000000
  124       12.736537   0.000000
  125       13.061724   0.000000
  126       13.065460   0.000000
  127       13.066913   0.000000
  128       13.077294   0.000000
  129       13.349045   0.000000
  130       13.349373   0.000000
  131       13.353813   0.000000
  132       13.355174   0.000000
  133       13.851468   0.000000
  134       13.852582   0.000000
  135       13.852933   0.000000
  136       13.854603   0.000000
  137       14.174765   0.000000
  138       14.176433   0.000000
  139       14.178748   0.000000
  140       14.181644   0.000000
  141       14.772782   0.000000
  142       14.781577   0.000000
  143       14.783289   0.000000
  144       14.785744   0.000000
 
  0.5000000E+00  0.3100000E+00  0.0000000E+00  0.4901961E-02
    1      -15.581912   1.000000
    2      -15.581513   1.000000
    3      -15.577996   1.000000
    4      -15.577326   1.000000
    5      -10.935306   1.000000
    6      -10.935284   1.000000
    7      -10.931709   1.000000
    8      -10.931339   1.000000
    9       -7.250919   1.000000
   10       -7.249933   1.000000
   11       -7.236503   1.000000
   12       -7.222941   1.000000
   13       -6.373808   1.000000
   14       -6.369561   1.000000
   15       -6.341114   1.000000
   16       -6.325210   1.000000
   17       -4.363394   1.000000
   18       -4.359717   1.000000
   19       -4.323545   1.000000
   20       -4.319126   1.000000
   21       -0.340614   0.000000
   22       -0.286590   0.000000
   23       -0.272487   0.000000
   24       -0.242975   0.000000
   25        0.729932   0.000000
   26        0.740665   0.000000
   27        0.762310   0.000000
   28        0.803720   0.000000
   29        2.049477   0.000000
   30        2.080234   0.000000
   31        2.081895   0.000000
   32        2.083054   0.000000
   33        3.455036   0.000000
   34        3.463458   0.000000
   35        3.466575   0.000000
   36        3.466827   0.000000
   37        4.890983   0.000000
   38        4.901567   0.000000
   39        4.901926   0.000000
   40        4.906112   0.000000
   41        5.086802   0.000000
   42        5.089431   0.000000
   43        5.093060   0.000000
   44        5.093689   0.000000
   45        5.480517   0.000000
   46        5.481628   0.000000
   47        5.481659   0.000000
   48        5.483117   0.000000
   49        5.721750   0.000000
   50        5.723748   0.000000
   51        5.723842   0.000000
   52        5.723898   0.000000
   53        6.374449   0.000000
   54        6.377019   0.000000
   55        6.381031   0.000000
   56        6.384045   0.000000
   57        6.657840   0.000000
   58        6.658691   0.000000
   59        6.662291   0.000000
   60        6.663092   0.000000
   61        7.481599   0.000000
   62        7.482878   0.000000
   63        7.484886   0.000000
   64        7.490511   0.000000
   65        7.810550   0.000000
   66        7.819358   0.000000
   67        7.822036   0.000000
   68        7.826861   0.000000
   69        8.048663   0.000000
   70        8.051978   0.000000
   71        8.057262   0.000000
   72        8.057452   0.000000
   73        8.211723   0.000000
   74        8.212264   0.000000
   75        8.212580   0.000000
   76        8.213188   0.000000
   77        8.324542   0.000000
   78        8.324563   0.000000
   79        8.325086   0.000000
   80        8.325624   0.000000
   81        8.790633   0.000000
   82        8.791752   0.000000
   83        8.794732   0.000000
   84        8.796919   0.000000
   85        9.168920   0.000000
   86        9.171399   0.000000
   87        9.180057   0.000000
   88        9.182546   0.000000
   89        9.436131   0.000000
   90        9.437197   0.000000
   91        9.442603   0.000000
   92        9.445380   0.000000
   93        9.772948   0.000000
   94        9.779525   0.000000
   95        9.781740   0.000000
   96        9.782584   0.000000
   97        9.943894   0.000000
   98        9.945790   0.000000
   99        9.947782   0.000000
  100        9.949199   0.000000
  101       10.618456   0.000000
  102       10.620293   0.000000
  103       10.621415   0.000000
  104       10.622559   0.000000
  105       10.781654   0.000000
  106       10.782336   0.000000
  107       10.786827   0.000000
  108       10.788113   0.000000
  109       11.143507   0.000000
  110       11.146681   0.000000
  111       11.148289   0.000000
  112       11.150915   0.000000
  113       11.482134   0.000000
  114       11.492628   0.000000
  115       11.494951   0.000000
  116       11.495370   0.000000
  117       11.622718   0.000000
  118       11.626866   0.000000
  119       11.628995   0.000000
  120       11.630242   0.000000
  121       12.702984   0.000000
  122       12.705468   0.000000
  123       12.710932   0.000000
  124       12.713212   0.000000
  125       13.020186   0.000000
  126       13.020745   0.000000
  127       13.025777   0.000000
  128       13.036703   0.000000
  129       13.327034   0.000000
  130       13.329859   0.000000
  131       13.330599   0.000000
  132       13.332898   0.000000
  133       13.808448   0.000000
  134       13.809811   0.000000
  135       13.810086   0.000000
  136       13.813793   0.000000
  137       14.132914   0.000000
  138       14.133699   0.000000
  139       14.134973   0.000000
  140       14.138250   0.000000
  141       14.877529   0.000000
  142       14.885125   0.000000
  143       14.886530   0.000000
  144       14.888767   0.000000
 
  0.5000000E+00  0.3200000E+00  0.0000000E+00  0.4901961E-02
    1      -15.577549   1.000000
    2      -15.577171   1.000000
    3      -15.573532   1.000000
    4      -15.572890   1.000000
    5      -10.930735   1.000000
    6      -10.930684   1.000000
    7      -10.927041   1.000000
    8      -10.926700   1.000000
    9       -7.268186   1.000000
   10       -7.267131   1.000000
   11       -7.253845   1.000000
   12       -7.240313   1.000000
   13       -6.413228   1.000000
   14       -6.409323   1.000000
   15       -6.380151   1.000000
   16       -6.364429   1.000000
   17       -4.366701   1.000000
   18       -4.363367   1.000000
   19       -4.326858   1.000000
   20       -4.322642   1.000000
   21       -0.280902   0.000000
   22       -0.225883   0.000000
   23       -0.210432   0.000000
   24       -0.180690   0.000000
   25        0.744011   0.000000
   26        0.753919   0.000000
   27        0.775465   0.000000
   28        0.818784   0.000000
   29        2.132575   0.000000
   30        2.164021   0.000000
   31        2.165621   0.000000
   32        2.167067   0.000000
   33        3.464639   0.000000
   34        3.472369   0.000000
   35        3.476207   0.000000
   36        3.476560   0.000000
   37        4.916780   0.000000
   38        4.925617   0.000000
   39        4.926699   0.000000
   40        4.931749   0.000000
   41        5.088492   0.000000
   42        5.093678   0.000000
   43        5.094164   0.000000
   44        5.097078   0.000000
   45        5.520877   0.000000
   46        5.521949   0.000000
   47        5.522402   0.000000
   48        5.523564   0.000000
   49        5.735058   0.000000
   50        5.736041   0.000000
   51        5.736801   0.000000
   52        5.737117   0.000000
   53        6.400697   0.000000
   54        6.402704   0.000000
   55        6.407485   0.000000
   56        6.410198   0.000000
   57        6.690095   0.000000
   58        6.690893   0.000000
   59        6.694277   0.000000
   60        6.694914   0.000000
   61        7.417966   0.000000
   62        7.421691   0.000000
   63        7.421784   0.000000
   64        7.427915   0.000000
   65        7.812384   0.000000
   66        7.821510   0.000000
   67        7.827039   0.000000
   68        7.828625   0.000000
   69        7.961375   0.000000
   70        7.966391   0.000000
   71        7.968565   0.000000
   72        7.971277   0.000000
   73        8.133663   0.000000
   74        8.135098   0.000000
   75        8.135749   0.000000
   76        8.135955   0.000000
   77        8.325326   0.000000
   78        8.326517   0.000000
   79        8.327906   0.000000
   80        8.328358   0.000000
   81        8.698908   0.000000
   82        8.699793   0.000000
   83        8.702267   0.000000
   84        8.704205   0.000000
   85        9.092662   0.000000
   86        9.093559   0.000000
   87        9.100987   0.000000
   88        9.104268   0.000000
   89        9.407911   0.000000
   90        9.409463   0.000000
   91        9.410447   0.000000
   92        9.415416   0.000000
   93        9.781161   0.000000
   94        9.784660   0.000000
   95        9.787365   0.000000
   96        9.787880   0.000000
   97        9.916707   0.000000
   98        9.916782   0.000000
   99        9.916817   0.000000
  100        9.918527   0.000000
  101       10.597755   0.000000
  102       10.598230   0.000000
  103       10.601252   0.000000
  104       10.601283   0.000000
  105       10.798514   0.000000
  106       10.802467   0.000000
  107       10.804480   0.000000
  108       10.806511   0.000000
  109       11.150408   0.000000
  110       11.150681   0.000000
  111       11.155357   0.000000
  112       11.157471   0.000000
  113       11.443428   0.000000
  114       11.452462   0.000000
  115       11.453535   0.000000
  116       11.453780   0.000000
  117       11.598583   0.000000
  118       11.603127   0.000000
  119       11.603960   0.000000
  120       11.604275   0.000000
  121       12.672764   0.000000
  122       12.672968   0.000000
  123       12.679832   0.000000
  124       12.681568   0.000000
  125       12.972302   0.000000
  126       12.975416   0.000000
  127       12.980800   0.000000
  128       12.991734   0.000000
  129       13.307247   0.000000
  130       13.310107   0.000000
  131       13.312664   0.000000
  132       13.313703   0.000000
  133       13.767657   0.000000
  134       13.769181   0.000000
  135       13.769568   0.000000
  136       13.775062   0.000000
  137       14.105569   0.000000
  138       14.105936   0.000000
  139       14.106150   0.000000
  140       14.109736   0.000000
  141       14.984266   0.000000
  142       14.991117   0.000000
  143       14.991993   0.000000
  144       14.998425   0.000000
 
  0.5000000E+00  0.3300000E+00  0.0000000E+00  0.4901961E-02
    1      -15.573298   1.000000
    2      -15.572942   1.000000
    3      -15.569186   1.000000
    4      -15.568573   1.000000
    5      -10.926332   1.000000
    6      -10.926257   1.000000
    7      -10.922548   1.000000
    8      -10.922234   1.000000
    9       -7.283873   1.000000
   10       -7.282761   1.000000
   11       -7.269635   1.000000
   12       -7.256172   1.000000
   13       -6.452116   1.000000
   14       -6.448544   1.000000
   15       -6.418639   1.000000
   16       -6.403135   1.000000
   17       -4.369654   1.000000
   18       -4.366637   1.000000
   19       -4.329827   1.000000
   20       -4.325826   1.000000
   21       -0.224277   0.000000
   22       -0.168668   0.000000
   23       -0.151589   0.000000
   24       -0.121899   0.000000
   25        0.760850   0.000000
   26        0.769812   0.000000
   27        0.791021   0.000000
   28        0.836079   0.000000
   29        2.211786   0.000000
   30        2.243803   0.000000
   31        2.245387   0.000000
   32        2.247119   0.000000
   33        3.476889   0.000000
   34        3.483843   0.000000
   35        3.488453   0.000000
   36        3.488892   0.000000
   37        4.935524   0.000000
   38        4.941972   0.000000
   39        4.943834   0.000000
   40        4.949075   0.000000
   41        5.096438   0.000000
   42        5.100260   0.000000
   43        5.103648   0.000000
   44        5.106201   0.000000
   45        5.562892   0.000000
   46        5.563962   0.000000
   47        5.564740   0.000000
   48        5.565669   0.000000
   49        5.752661   0.000000
   50        5.752986   0.000000
   51        5.754308   0.000000
   52        5.754885   0.000000
   53        6.428942   0.000000
   54        6.430482   0.000000
   55        6.435945   0.000000
   56        6.438325   0.000000
   57        6.723071   0.000000
   58        6.723750   0.000000
   59        6.726840   0.000000
   60        6.727377   0.000000
   61        7.348438   0.000000
   62        7.352819   0.000000
   63        7.353882   0.000000
   64        7.358689   0.000000
   65        7.799518   0.000000
   66        7.808367   0.000000
   67        7.809141   0.000000
   68        7.813396   0.000000
   69        7.896775   0.000000
   70        7.899564   0.000000
   71        7.905089   0.000000
   72        7.907101   0.000000
   73        8.045369   0.000000
   74        8.047145   0.000000
   75        8.047431   0.000000
   76        8.047899   0.000000
   77        8.341715   0.000000
   78        8.344262   0.000000
   79        8.344590   0.000000
   80        8.345009   0.000000
   81        8.609648   0.000000
   82        8.611058   0.000000
   83        8.612123   0.000000
   84        8.613971   0.000000
   85        9.010938   0.000000
   86        9.014118   0.000000
   87        9.018716   0.000000
   88        9.022138   0.000000
   89        9.376163   0.000000
   90        9.377059   0.000000
   91        9.378042   0.000000
   92        9.381469   0.000000
   93        9.753840   0.000000
   94        9.755601   0.000000
   95        9.756349   0.000000
   96        9.761153   0.000000
   97        9.924258   0.000000
   98        9.924540   0.000000
   99        9.926511   0.000000
  100        9.926835   0.000000
  101       10.567634   0.000000
  102       10.569615   0.000000
  103       10.572177   0.000000
  104       10.572249   0.000000
  105       10.814259   0.000000
  106       10.820306   0.000000
  107       10.821109   0.000000
  108       10.822761   0.000000
  109       11.158471   0.000000
  110       11.161314   0.000000
  111       11.166135   0.000000
  112       11.167298   0.000000
  113       11.413125   0.000000
  114       11.418944   0.000000
  115       11.419355   0.000000
  116       11.420272   0.000000
  117       11.588152   0.000000
  118       11.590424   0.000000
  119       11.592298   0.000000
  120       11.592932   0.000000
  121       12.634343   0.000000
  122       12.636411   0.000000
  123       12.642527   0.000000
  124       12.643556   0.000000
  125       12.920685   0.000000
  126       12.927115   0.000000
  127       12.932029   0.000000
  128       12.942624   0.000000
  129       13.286714   0.000000
  130       13.289207   0.000000
  131       13.294020   0.000000
  132       13.294252   0.000000
  133       13.731333   0.000000
  134       13.732538   0.000000
  135       13.734121   0.000000
  136       13.740372   0.000000
  137       14.091762   0.000000
  138       14.092083   0.000000
  139       14.093416   0.000000
  140       14.095837   0.000000
  141       15.090303   0.000000
  142       15.102448   0.000000
  143       15.118252   0.000000
  144       15.171898   0.000000
 
  0.5000000E+00  0.3400000E+00  0.0000000E+00  0.4901961E-02
    1      -15.569180   1.000000
    2      -15.568845   1.000000
    3      -15.564975   1.000000
    4      -15.564391   1.000000
    5      -10.922113   1.000000
    6      -10.922017   1.000000
    7      -10.918246   1.000000
    8      -10.917959   1.000000
    9       -7.297962   1.000000
   10       -7.296804   1.000000
   11       -7.283852   1.000000
   12       -7.270501   1.000000
   13       -6.490331   1.000000
   14       -6.487082   1.000000
   15       -6.456429   1.000000
   16       -6.441182   1.000000
   17       -4.372263   1.000000
   18       -4.369539   1.000000
   19       -4.332462   1.000000
   20       -4.328683   1.000000
   21       -0.171213   0.000000
   22       -0.115546   0.000000
   23       -0.096540   0.000000
   24       -0.067237   0.000000
   25        0.780727   0.000000
   26        0.788652   0.000000
   27        0.809234   0.000000
   28        0.855753   0.000000
   29        2.286643   0.000000
   30        2.319088   0.000000
   31        2.320704   0.000000
   32        2.322708   0.000000
   33        3.491837   0.000000
   34        3.497953   0.000000
   35        3.503361   0.000000
   36        3.503871   0.000000
   37        4.944005   0.000000
   38        4.948161   0.000000
   39        4.950691   0.000000
   40        4.954779   0.000000
   41        5.114698   0.000000
   42        5.115339   0.000000
   43        5.122456   0.000000
   44        5.124411   0.000000
   45        5.606437   0.000000
   46        5.607554   0.000000
   47        5.608537   0.000000
   48        5.609308   0.000000
   49        5.773621   0.000000
   50        5.775312   0.000000
   51        5.776186   0.000000
   52        5.776939   0.000000
   53        6.458780   0.000000
   54        6.459982   0.000000
   55        6.466003   0.000000
   56        6.468027   0.000000
   57        6.755718   0.000000
   58        6.756229   0.000000
   59        6.758892   0.000000
   60        6.759419   0.000000
   61        7.277881   0.000000
   62        7.282871   0.000000
   63        7.284607   0.000000
   64        7.288079   0.000000
   65        7.739947   0.000000
   66        7.740392   0.000000
   67        7.745319   0.000000
   68        7.746291   0.000000
   69        7.875932   0.000000
   70        7.880469   0.000000
   71        7.880682   0.000000
   72        7.887787   0.000000
   73        7.965162   0.000000
   74        7.966227   0.000000
   75        7.966766   0.000000
   76        7.966888   0.000000
   77        8.357954   0.000000
   78        8.358378   0.000000
   79        8.361880   0.000000
   80        8.361987   0.000000
   81        8.526754   0.000000
   82        8.528202   0.000000
   83        8.529996   0.000000
   84        8.530450   0.000000
   85        8.928348   0.000000
   86        8.933100   0.000000
   87        8.935573   0.000000
   88        8.938721   0.000000
   89        9.340460   0.000000
   90        9.343819   0.000000
   91        9.343837   0.000000
   92        9.344975   0.000000
   93        9.705093   0.000000
   94        9.706733   0.000000
   95        9.708683   0.000000
   96        9.713447   0.000000
   97        9.952034   0.000000
   98        9.953042   0.000000
   99        9.955321   0.000000
  100        9.955357   0.000000
  101       10.534041   0.000000
  102       10.536831   0.000000
  103       10.538651   0.000000
  104       10.539255   0.000000
  105       10.825081   0.000000
  106       10.832065   0.000000
  107       10.832641   0.000000
  108       10.833204   0.000000
  109       11.165036   0.000000
  110       11.170524   0.000000
  111       11.174628   0.000000
  112       11.174940   0.000000
  113       11.395240   0.000000
  114       11.395315   0.000000
  115       11.396657   0.000000
  116       11.399904   0.000000
  117       11.590810   0.000000
  118       11.592052   0.000000
  119       11.595177   0.000000
  120       11.595833   0.000000
  121       12.591701   0.000000
  122       12.595801   0.000000
  123       12.600893   0.000000
  124       12.601153   0.000000
  125       12.867201   0.000000
  126       12.876148   0.000000
  127       12.880584   0.000000
  128       12.890704   0.000000
  129       13.261186   0.000000
  130       13.263554   0.000000
  131       13.269336   0.000000
  132       13.269839   0.000000
  133       13.703396   0.000000
  134       13.704138   0.000000
  135       13.707541   0.000000
  136       13.713505   0.000000
  137       14.090227   0.000000
  138       14.090721   0.000000
  139       14.093241   0.000000
  140       14.094529   0.000000
  141       15.194634   0.000000
  142       15.205095   0.000000
  143       15.224458   0.000000
  144       15.301585   0.000000
 
  0.5000000E+00  0.3500000E+00  0.0000000E+00  0.4901961E-02
    1      -15.565209   1.000000
    2      -15.564895   1.000000
    3      -15.560914   1.000000
    4      -15.560362   1.000000
    5      -10.918093   1.000000
    6      -10.917979   1.000000
    7      -10.914149   1.000000
    8      -10.913888   1.000000
    9       -7.310447   1.000000
   10       -7.309257   1.000000
   11       -7.296488   1.000000
   12       -7.283298   1.000000
   13       -6.527721   1.000000
   14       -6.524785   1.000000
   15       -6.493360   1.000000
   16       -6.478416   1.000000
   17       -4.374542   1.000000
   18       -4.372089   1.000000
   19       -4.334772   1.000000
   20       -4.331223   1.000000
   21       -0.122116   0.000000
   22       -0.067034   0.000000
   23       -0.045800   0.000000
   24       -0.017254   0.000000
   25        0.803818   0.000000
   26        0.810649   0.000000
   27        0.830284   0.000000
   28        0.877872   0.000000
   29        2.356701   0.000000
   30        2.389404   0.000000
   31        2.391104   0.000000
   32        2.393349   0.000000
   33        3.509482   0.000000
   34        3.514730   0.000000
   35        3.520925   0.000000
   36        3.521493   0.000000
   37        4.942115   0.000000
   38        4.944909   0.000000
   39        4.947917   0.000000
   40        4.949890   0.000000
   41        5.140329   0.000000
   42        5.143033   0.000000
   43        5.150085   0.000000
   44        5.151809   0.000000
   45        5.651370   0.000000
   46        5.652594   0.000000
   47        5.653642   0.000000
   48        5.654345   0.000000
   49        5.798718   0.000000
   50        5.801707   0.000000
   51        5.802140   0.000000
   52        5.802992   0.000000
   53        6.489733   0.000000
   54        6.490772   0.000000
   55        6.497174   0.000000
   56        6.498822   0.000000
   57        6.786278   0.000000
   58        6.786586   0.000000
   59        6.788614   0.000000
   60        6.789265   0.000000
   61        7.210199   0.000000
   62        7.215934   0.000000
   63        7.218001   0.000000
   64        7.220142   0.000000
   65        7.654345   0.000000
   66        7.657370   0.000000
   67        7.658643   0.000000
   68        7.660769   0.000000
   69        7.832131   0.000000
   70        7.834290   0.000000
   71        7.835143   0.000000
   72        7.835555   0.000000
   73        7.929423   0.000000
   74        7.930129   0.000000
   75        7.934609   0.000000
   76        7.941498   0.000000
   77        8.350321   0.000000
   78        8.355460   0.000000
   79        8.359684   0.000000
   80        8.359967   0.000000
   81        8.466342   0.000000
   82        8.467957   0.000000
   83        8.468565   0.000000
   84        8.475347   0.000000
   85        8.846261   0.000000
   86        8.852062   0.000000
   87        8.852986   0.000000
   88        8.855526   0.000000
   89        9.303855   0.000000
   90        9.306930   0.000000
   91        9.307627   0.000000
   92        9.308591   0.000000
   93        9.652543   0.000000
   94        9.653616   0.000000
   95        9.656311   0.000000
   96        9.660905   0.000000
   97        9.983192   0.000000
   98        9.984794   0.000000
   99        9.986095   0.000000
  100        9.986232   0.000000
  101       10.499897   0.000000
  102       10.502889   0.000000
  103       10.503547   0.000000
  104       10.505248   0.000000
  105       10.829795   0.000000
  106       10.836720   0.000000
  107       10.836838   0.000000
  108       10.837691   0.000000
  109       11.165684   0.000000
  110       11.172234   0.000000
  111       11.174543   0.000000
  112       11.176171   0.000000
  113       11.387158   0.000000
  114       11.389411   0.000000
  115       11.392732   0.000000
  116       11.394399   0.000000
  117       11.605447   0.000000
  118       11.610042   0.000000
  119       11.611731   0.000000
  120       11.612872   0.000000
  121       12.546645   0.000000
  122       12.552397   0.000000
  123       12.555898   0.000000
  124       12.556368   0.000000
  125       12.813823   0.000000
  126       12.824367   0.000000
  127       12.828427   0.000000
  128       12.838070   0.000000
  129       13.227032   0.000000
  130       13.229474   0.000000
  131       13.235067   0.000000
  132       13.236496   0.000000
  133       13.687216   0.000000
  134       13.687583   0.000000
  135       13.693065   0.000000
  136       13.697857   0.000000
  137       14.098384   0.000000
  138       14.099362   0.000000
  139       14.102769   0.000000
  140       14.103053   0.000000
  141       15.207700   0.000000
  142       15.223939   0.000000
  143       15.260908   0.000000
  144       15.310644   0.000000
 
  0.5000000E+00  0.3600000E+00  0.0000000E+00  0.4901961E-02
    1      -15.561405   1.000000
    2      -15.561112   1.000000
    3      -15.557025   1.000000
    4      -15.556504   1.000000
    5      -10.914283   1.000000
    6      -10.914155   1.000000
    7      -10.910270   1.000000
    8      -10.910035   1.000000
    9       -7.321341   1.000000
   10       -7.320131   1.000000
   11       -7.307553   1.000000
   12       -7.294579   1.000000
   13       -6.564133   1.000000
   14       -6.561496   1.000000
   15       -6.529272   1.000000
   16       -6.514681   1.000000
   17       -4.376514   1.000000
   18       -4.374312   1.000000
   19       -4.336779   1.000000
   20       -4.333463   1.000000
   21       -0.077285   0.000000
   22       -0.023503   0.000000
   23        0.000230   0.000000
   24        0.027635   0.000000
   25        0.830144   0.000000
   26        0.835861   0.000000
   27        0.854221   0.000000
   28        0.902385   0.000000
   29        2.421568   0.000000
   30        2.454323   0.000000
   31        2.456164   0.000000
   32        2.458604   0.000000
   33        3.529744   0.000000
   34        3.534128   0.000000
   35        3.541060   0.000000
   36        3.541677   0.000000
   37        4.932805   0.000000
   38        4.935123   0.000000
   39        4.938213   0.000000
   40        4.938533   0.000000
   41        5.173050   0.000000
   42        5.178384   0.000000
   43        5.184305   0.000000
   44        5.186076   0.000000
   45        5.697527   0.000000
   46        5.698930   0.000000
   47        5.699876   0.000000
   48        5.700617   0.000000
   49        5.827696   0.000000
   50        5.831802   0.000000
   51        5.831843   0.000000
   52        5.832719   0.000000
   53        6.521144   0.000000
   54        6.522254   0.000000
   55        6.528782   0.000000
   56        6.530026   0.000000
   57        6.811481   0.000000
   58        6.811558   0.000000
   59        6.812663   0.000000
   60        6.813647   0.000000
   61        7.150124   0.000000
   62        7.156846   0.000000
   63        7.158915   0.000000
   64        7.159628   0.000000
   65        7.565983   0.000000
   66        7.569673   0.000000
   67        7.569719   0.000000
   68        7.571807   0.000000
   69        7.749864   0.000000
   70        7.750862   0.000000
   71        7.752367   0.000000
   72        7.752887   0.000000
   73        7.935520   0.000000
   74        7.937078   0.000000
   75        7.943299   0.000000
   76        7.950576   0.000000
   77        8.298879   0.000000
   78        8.305834   0.000000
   79        8.307208   0.000000
   80        8.309356   0.000000
   81        8.456173   0.000000
   82        8.459015   0.000000
   83        8.460865   0.000000
   84        8.466716   0.000000
   85        8.765923   0.000000
   86        8.772041   0.000000
   87        8.772404   0.000000
   88        8.773759   0.000000
   89        9.266633   0.000000
   90        9.268035   0.000000
   91        9.269953   0.000000
   92        9.271598   0.000000
   93        9.601129   0.000000
   94        9.602037   0.000000
   95        9.604365   0.000000
   96        9.608979   0.000000
   97       10.010527   0.000000
   98       10.012181   0.000000
   99       10.012454   0.000000
  100       10.012486   0.000000
  101       10.467480   0.000000
  102       10.469284   0.000000
  103       10.470120   0.000000
  104       10.472354   0.000000
  105       10.829040   0.000000
  106       10.834492   0.000000
  107       10.835144   0.000000
  108       10.836780   0.000000
  109       11.159403   0.000000
  110       11.164811   0.000000
  111       11.166804   0.000000
  112       11.168490   0.000000
  113       11.394810   0.000000
  114       11.397569   0.000000
  115       11.403104   0.000000
  116       11.404067   0.000000
  117       11.633310   0.000000
  118       11.640679   0.000000
  119       11.640725   0.000000
  120       11.642611   0.000000
  121       12.500123   0.000000
  122       12.507103   0.000000
  123       12.508759   0.000000
  124       12.509793   0.000000
  125       12.762908   0.000000
  126       12.774160   0.000000
  127       12.777925   0.000000
  128       12.787202   0.000000
  129       13.183007   0.000000
  130       13.185664   0.000000
  131       13.190387   0.000000
  132       13.192833   0.000000
  133       13.683613   0.000000
  134       13.683834   0.000000
  135       13.691199   0.000000
  136       13.694369   0.000000
  137       14.113779   0.000000
  138       14.115426   0.000000
  139       14.119017   0.000000
  140       14.119524   0.000000
  141       15.130265   0.000000
  142       15.132747   0.000000
  143       15.143875   0.000000
  144       15.171655   0.000000
 
  0.5000000E+00  0.3700000E+00  0.0000000E+00  0.4901961E-02
    1      -15.557781   1.000000
    2      -15.557509   1.000000
    3      -15.553320   1.000000
    4      -15.552832   1.000000
    5      -10.910696   1.000000
    6      -10.910557   1.000000
    7      -10.906620   1.000000
    8      -10.906408   1.000000
    9       -7.330670   1.000000
   10       -7.329453   1.000000
   11       -7.317071   1.000000
   12       -7.304373   1.000000
   13       -6.599404   1.000000
   14       -6.597053   1.000000
   15       -6.563993   1.000000
   16       -6.549814   1.000000
   17       -4.378199   1.000000
   18       -4.376228   1.000000
   19       -4.338501   1.000000
   20       -4.335421   1.000000
   21       -0.036892   0.000000
   22        0.014857   0.000000
   23        0.041311   0.000000
   24        0.067212   0.000000
   25        0.859539   0.000000
   26        0.864147   0.000000
   27        0.880932   0.000000
   28        0.929107   0.000000
   29        2.480933   0.000000
   30        2.513495   0.000000
   31        2.515541   0.000000
   32        2.518112   0.000000
   33        3.552463   0.000000
   34        3.556028   0.000000
   35        3.563597   0.000000
   36        3.564260   0.000000
   37        4.919333   0.000000
   38        4.921601   0.000000
   39        4.923023   0.000000
   40        4.925465   0.000000
   41        5.210921   0.000000
   42        5.218136   0.000000
   43        5.222937   0.000000
   44        5.224901   0.000000
   45        5.744710   0.000000
   46        5.746382   0.000000
   47        5.747022   0.000000
   48        5.747933   0.000000
   49        5.860336   0.000000
   50        5.864991   0.000000
   51        5.865288   0.000000
   52        5.865834   0.000000
   53        6.551942   0.000000
   54        6.553457   0.000000
   55        6.559700   0.000000
   56        6.560494   0.000000
   57        6.825270   0.000000
   58        6.825306   0.000000
   59        6.825507   0.000000
   60        6.826861   0.000000
   61        7.104965   0.000000
   62        7.112858   0.000000
   63        7.113776   0.000000
   64        7.114572   0.000000
   65        7.477949   0.000000
   66        7.481262   0.000000
   67        7.481731   0.000000
   68        7.483001   0.000000
   69        7.661642   0.000000
   70        7.663410   0.000000
   71        7.664508   0.000000
   72        7.664854   0.000000
   73        7.946498   0.000000
   74        7.950347   0.000000
   75        7.955705   0.000000
   76        7.962147   0.000000
   77        8.228210   0.000000
   78        8.232687   0.000000
   79        8.234058   0.000000
   80        8.236041   0.000000
   81        8.471047   0.000000
   82        8.475170   0.000000
   83        8.478462   0.000000
   84        8.480165   0.000000
   85        8.689367   0.000000
   86        8.694890   0.000000
   87        8.695164   0.000000
   88        8.695594   0.000000
   89        9.228683   0.000000
   90        9.228885   0.000000
   91        9.231143   0.000000
   92        9.233066   0.000000
   93        9.553043   0.000000
   94        9.554146   0.000000
   95        9.555397   0.000000
   96        9.559932   0.000000
   97       10.030050   0.000000
   98       10.030117   0.000000
   99       10.030771   0.000000
  100       10.031554   0.000000
  101       10.437870   0.000000
  102       10.438611   0.000000
  103       10.440379   0.000000
  104       10.442428   0.000000
  105       10.824622   0.000000
  106       10.828197   0.000000
  107       10.829413   0.000000
  108       10.831687   0.000000
  109       11.149175   0.000000
  110       11.151921   0.000000
  111       11.155256   0.000000
  112       11.155589   0.000000
  113       11.413936   0.000000
  114       11.416775   0.000000
  115       11.421970   0.000000
  116       11.424547   0.000000
  117       11.671817   0.000000
  118       11.679602   0.000000
  119       11.681233   0.000000
  120       11.682243   0.000000
  121       12.452526   0.000000
  122       12.460233   0.000000
  123       12.460326   0.000000
  124       12.461510   0.000000
  125       12.717170   0.000000
  126       12.728320   0.000000
  127       12.731758   0.000000
  128       12.740865   0.000000
  129       13.130446   0.000000
  130       13.133356   0.000000
  131       13.137043   0.000000
  132       13.140255   0.000000
  133       13.690760   0.000000
  134       13.690989   0.000000
  135       13.699823   0.000000
  136       13.701381   0.000000
  137       14.134249   0.000000
  138       14.136675   0.000000
  139       14.140013   0.000000
  140       14.141319   0.000000
  141       15.049735   0.000000
  142       15.053644   0.000000
  143       15.057469   0.000000
  144       15.091589   0.000000
 
  0.5000000E+00  0.3800000E+00  0.0000000E+00  0.4901961E-02
    1      -15.554355   1.000000
    2      -15.554104   1.000000
    3      -15.549817   1.000000
    4      -15.549362   1.000000
    5      -10.907341   1.000000
    6      -10.907195   1.000000
    7      -10.903210   1.000000
    8      -10.903020   1.000000
    9       -7.338483   1.000000
   10       -7.337273   1.000000
   11       -7.325085   1.000000
   12       -7.312734   1.000000
   13       -6.633363   1.000000
   14       -6.631283   1.000000
   15       -6.597346   1.000000
   16       -6.583644   1.000000
   17       -4.379622   1.000000
   18       -4.377865   1.000000
   19       -4.339960   1.000000
   20       -4.337119   1.000000
   21       -0.000975   0.000000
   22        0.048050   0.000000
   23        0.077379   0.000000
   24        0.101463   0.000000
   25        0.891620   0.000000
   26        0.895137   0.000000
   27        0.910110   0.000000
   28        0.957701   0.000000
   29        2.534582   0.000000
   30        2.566668   0.000000
   31        2.568990   0.000000
   32        2.571615   0.000000
   33        3.577364   0.000000
   34        3.580190   0.000000
   35        3.588252   0.000000
   36        3.588965   0.000000
   37        4.904001   0.000000
   38        4.906290   0.000000
   39        4.906398   0.000000
   40        4.910726   0.000000
   41        5.252192   0.000000
   42        5.260748   0.000000
   43        5.264543   0.000000
   44        5.266764   0.000000
   45        5.792680   0.000000
   46        5.794732   0.000000
   47        5.794817   0.000000
   48        5.796058   0.000000
   49        5.896465   0.000000
   50        5.901368   0.000000
   51        5.901886   0.000000
   52        5.902104   0.000000
   53        6.579982   0.000000
   54        6.582403   0.000000
   55        6.587624   0.000000
   56        6.587878   0.000000
   57        6.820702   0.000000
   58        6.821445   0.000000
   59        6.821561   0.000000
   60        6.822789   0.000000
   61        7.083420   0.000000
   62        7.091337   0.000000
   63        7.092134   0.000000
   64        7.093338   0.000000
   65        7.391384   0.000000
   66        7.394388   0.000000
   67        7.394848   0.000000
   68        7.395499   0.000000
   69        7.573887   0.000000
   70        7.575933   0.000000
   71        7.576900   0.000000
   72        7.577021   0.000000
   73        7.952693   0.000000
   74        7.959082   0.000000
   75        7.961858   0.000000
   76        7.966790   0.000000
   77        8.159513   0.000000
   78        8.159902   0.000000
   79        8.163814   0.000000
   80        8.164177   0.000000
   81        8.485550   0.000000
   82        8.491786   0.000000
   83        8.492257   0.000000
   84        8.495527   0.000000
   85        8.622804   0.000000
   86        8.624992   0.000000
   87        8.626531   0.000000
   88        8.626834   0.000000
   89        9.189080   0.000000
   90        9.190520   0.000000
   91        9.191386   0.000000
   92        9.193181   0.000000
   93        9.509642   0.000000
   94        9.511000   0.000000
   95        9.511191   0.000000
   96        9.515153   0.000000
   97       10.037156   0.000000
   98       10.038517   0.000000
   99       10.039175   0.000000
  100       10.040171   0.000000
  101       10.410640   0.000000
  102       10.414245   0.000000
  103       10.414785   0.000000
  104       10.416615   0.000000
  105       10.818971   0.000000
  106       10.820608   0.000000
  107       10.822249   0.000000
  108       10.824895   0.000000
  109       11.138098   0.000000
  110       11.138531   0.000000
  111       11.141815   0.000000
  112       11.143679   0.000000
  113       11.439754   0.000000
  114       11.442434   0.000000
  115       11.446844   0.000000
  116       11.450117   0.000000
  117       11.717125   0.000000
  118       11.724723   0.000000
  119       11.727934   0.000000
  120       11.727939   0.000000
  121       12.403853   0.000000
  122       12.410521   0.000000
  123       12.411577   0.000000
  124       12.412143   0.000000
  125       12.679369   0.000000
  126       12.689761   0.000000
  127       12.692670   0.000000
  128       12.701895   0.000000
  129       13.071883   0.000000
  130       13.074991   0.000000
  131       13.077810   0.000000
  132       13.081450   0.000000
  133       13.705487   0.000000
  134       13.705762   0.000000
  135       13.715613   0.000000
  136       13.715856   0.000000
  137       14.157845   0.000000
  138       14.161090   0.000000
  139       14.164225   0.000000
  140       14.166224   0.000000
  141       14.973179   0.000000
  142       14.975797   0.000000
  143       14.976871   0.000000
  144       14.998617   0.000000
 
  0.5000000E+00  0.3900000E+00  0.0000000E+00  0.4901961E-02
    1      -15.551142   1.000000
    2      -15.550912   1.000000
    3      -15.546531   1.000000
    4      -15.546112   1.000000
    5      -10.904227   1.000000
    6      -10.904078   1.000000
    7      -10.900048   1.000000
    8      -10.899879   1.000000
    9       -7.344843   1.000000
   10       -7.343654   1.000000
   11       -7.331653   1.000000
   12       -7.319727   1.000000
   13       -6.665831   1.000000
   14       -6.664007   1.000000
   15       -6.629145   1.000000
   16       -6.615996   1.000000
   17       -4.380808   1.000000
   18       -4.379251   1.000000
   19       -4.341181   1.000000
   20       -4.338579   1.000000
   21        0.030558   0.000000
   22        0.076268   0.000000
   23        0.108549   0.000000
   24        0.130582   0.000000
   25        0.925804   0.000000
   26        0.928239   0.000000
   27        0.941254   0.000000
   28        0.987683   0.000000
   29        2.582427   0.000000
   30        2.613719   0.000000
   31        2.616395   0.000000
   32        2.618990   0.000000
   33        3.604052   0.000000
   34        3.606250   0.000000
   35        3.614623   0.000000
   36        3.615392   0.000000
   37        4.888267   0.000000
   38        4.889608   0.000000
   39        4.890453   0.000000
   40        4.895593   0.000000
   41        5.295818   0.000000
   42        5.305346   0.000000
   43        5.308248   0.000000
   44        5.310744   0.000000
   45        5.841152   0.000000
   46        5.842960   0.000000
   47        5.843713   0.000000
   48        5.844707   0.000000
   49        5.935963   0.000000
   50        5.940802   0.000000
   51        5.941358   0.000000
   52        5.941407   0.000000
   53        6.600406   0.000000
   54        6.604418   0.000000
   55        6.606784   0.000000
   56        6.607216   0.000000
   57        6.802049   0.000000
   58        6.802908   0.000000
   59        6.803445   0.000000
   60        6.804478   0.000000
   61        7.086805   0.000000
   62        7.094202   0.000000
   63        7.095492   0.000000
   64        7.096643   0.000000
   65        7.307284   0.000000
   66        7.309965   0.000000
   67        7.310032   0.000000
   68        7.310141   0.000000
   69        7.487869   0.000000
   70        7.490002   0.000000
   71        7.490798   0.000000
   72        7.490955   0.000000
   73        7.944189   0.000000
   74        7.950769   0.000000
   75        7.952115   0.000000
   76        7.952883   0.000000
   77        8.101314   0.000000
   78        8.105144   0.000000
   79        8.108282   0.000000
   80        8.109890   0.000000
   81        8.475995   0.000000
   82        8.477031   0.000000
   83        8.484840   0.000000
   84        8.485411   0.000000
   85        8.585507   0.000000
   86        8.585863   0.000000
   87        8.587040   0.000000
   88        8.588072   0.000000
   89        9.149355   0.000000
   90        9.150825   0.000000
   91        9.151487   0.000000
   92        9.152271   0.000000
   93        9.471842   0.000000
   94        9.472322   0.000000
   95        9.473918   0.000000
   96        9.475659   0.000000
   97       10.032858   0.000000
   98       10.034966   0.000000
   99       10.036730   0.000000
  100       10.037230   0.000000
  101       10.387709   0.000000
  102       10.393100   0.000000
  103       10.393865   0.000000
  104       10.394747   0.000000
  105       10.814642   0.000000
  106       10.814821   0.000000
  107       10.816633   0.000000
  108       10.819204   0.000000
  109       11.126157   0.000000
  110       11.129660   0.000000
  111       11.129840   0.000000
  112       11.134203   0.000000
  113       11.469239   0.000000
  114       11.471672   0.000000
  115       11.475045   0.000000
  116       11.478482   0.000000
  117       11.764948   0.000000
  118       11.772008   0.000000
  119       11.775515   0.000000
  120       11.776588   0.000000
  121       12.354057   0.000000
  122       12.359850   0.000000
  123       12.360176   0.000000
  124       12.362636   0.000000
  125       12.651989   0.000000
  126       12.661239   0.000000
  127       12.663280   0.000000
  128       12.672939   0.000000
  129       13.009992   0.000000
  130       13.013181   0.000000
  131       13.015458   0.000000
  132       13.019224   0.000000
  133       13.724459   0.000000
  134       13.724695   0.000000
  135       13.734518   0.000000
  136       13.735186   0.000000
  137       14.182615   0.000000
  138       14.186682   0.000000
  139       14.189536   0.000000
  140       14.192210   0.000000
  141       14.904143   0.000000
  142       14.906519   0.000000
  143       14.907084   0.000000
  144       14.912867   0.000000
 
  0.5000000E+00  0.4000000E+00  0.0000000E+00  0.4901961E-02
    1      -15.548157   1.000000
    2      -15.547948   1.000000
    3      -15.543479   1.000000
    4      -15.543095   1.000000
    5      -10.901363   1.000000
    6      -10.901214   1.000000
    7      -10.897142   1.000000
    8      -10.896994   1.000000
    9       -7.349840   1.000000
   10       -7.348687   1.000000
   11       -7.336857   1.000000
   12       -7.325446   1.000000
   13       -6.696617   1.000000
   14       -6.695035   1.000000
   15       -6.659194   1.000000
   16       -6.646683   1.000000
   17       -4.381786   1.000000
   18       -4.380413   1.000000
   19       -4.342188   1.000000
   20       -4.339827   1.000000
   21        0.057916   0.000000
   22        0.099849   0.000000
   23        0.135094   0.000000
   24        0.154929   0.000000
   25        0.961344   0.000000
   26        0.962683   0.000000
   27        0.973692   0.000000
   28        1.018440   0.000000
   29        2.624514   0.000000
   30        2.654665   0.000000
   31        2.657784   0.000000
   32        2.660267   0.000000
   33        3.632004   0.000000
   34        3.633710   0.000000
   35        3.642178   0.000000
   36        3.643016   0.000000
   37        4.873045   0.000000
   38        4.873449   0.000000
   39        4.874915   0.000000
   40        4.880869   0.000000
   41        5.341158   0.000000
   42        5.351390   0.000000
   43        5.353490   0.000000
   44        5.356252   0.000000
   45        5.889802   0.000000
   46        5.891143   0.000000
   47        5.893006   0.000000
   48        5.893545   0.000000
   49        5.978696   0.000000
   50        5.983151   0.000000
   51        5.983451   0.000000
   52        5.983689   0.000000
   53        6.603419   0.000000
   54        6.606725   0.000000
   55        6.607870   0.000000
   56        6.609229   0.000000
   57        6.784729   0.000000
   58        6.789016   0.000000
   59        6.789716   0.000000
   60        6.789790   0.000000
   61        7.104669   0.000000
   62        7.112561   0.000000
   63        7.112680   0.000000
   64        7.115015   0.000000
   65        7.228234   0.000000
   66        7.228847   0.000000
   67        7.229318   0.000000
   68        7.230353   0.000000
   69        7.404906   0.000000
   70        7.406965   0.000000
   71        7.407472   0.000000
   72        7.407981   0.000000
   73        7.908605   0.000000
   74        7.910134   0.000000
   75        7.911085   0.000000
   76        7.914576   0.000000
   77        8.072451   0.000000
   78        8.072904   0.000000
   79        8.082751   0.000000
   80        8.083957   0.000000
   81        8.424472   0.000000
   82        8.427298   0.000000
   83        8.431925   0.000000
   84        8.435758   0.000000
   85        8.590021   0.000000
   86        8.590164   0.000000
   87        8.593132   0.000000
   88        8.594311   0.000000
   89        9.109740   0.000000
   90        9.109926   0.000000
   91        9.110969   0.000000
   92        9.111815   0.000000
   93        9.439922   0.000000
   94        9.440213   0.000000
   95        9.442073   0.000000
   96        9.442605   0.000000
   97       10.018566   0.000000
   98       10.021191   0.000000
   99       10.023636   0.000000
  100       10.023799   0.000000
  101       10.367608   0.000000
  102       10.373574   0.000000
  103       10.375056   0.000000
  104       10.375450   0.000000
  105       10.812944   0.000000
  106       10.814697   0.000000
  107       10.815270   0.000000
  108       10.817206   0.000000
  109       11.117252   0.000000
  110       11.120789   0.000000
  111       11.123415   0.000000
  112       11.127595   0.000000
  113       11.500704   0.000000
  114       11.502871   0.000000
  115       11.505015   0.000000
  116       11.508391   0.000000
  117       11.811169   0.000000
  118       11.817443   0.000000
  119       11.820926   0.000000
  120       11.822987   0.000000
  121       12.303448   0.000000
  122       12.307961   0.000000
  123       12.308793   0.000000
  124       12.312256   0.000000
  125       12.636667   0.000000
  126       12.644750   0.000000
  127       12.645609   0.000000
  128       12.655889   0.000000
  129       12.947300   0.000000
  130       12.950385   0.000000
  131       12.952560   0.000000
  132       12.956192   0.000000
  133       13.744563   0.000000
  134       13.744595   0.000000
  135       13.754263   0.000000
  136       13.755408   0.000000
  137       14.206527   0.000000
  138       14.211300   0.000000
  139       14.213902   0.000000
  140       14.217150   0.000000
  141       14.843638   0.000000
  142       14.844547   0.000000
  143       14.847781   0.000000
  144       14.853405   0.000000
 
  0.5000000E+00  0.4100000E+00  0.0000000E+00  0.4901961E-02
    1      -15.545411   1.000000
    2      -15.545224   1.000000
    3      -15.540671   1.000000
    4      -15.540323   1.000000
    5      -10.898755   1.000000
    6      -10.898610   1.000000
    7      -10.894499   1.000000
    8      -10.894369   1.000000
    9       -7.353579   1.000000
   10       -7.352477   1.000000
   11       -7.340792   1.000000
   12       -7.329994   1.000000
   13       -6.725517   1.000000
   14       -6.724161   1.000000
   15       -6.687287   1.000000
   16       -6.675511   1.000000
   17       -4.382576   1.000000
   18       -4.381376   1.000000
   19       -4.343004   1.000000
   20       -4.340882   1.000000
   21        0.081397   0.000000
   22        0.119233   0.000000
   23        0.157401   0.000000
   24        0.174976   0.000000
   25        0.997382   0.000000
   26        0.997579   0.000000
   27        1.006632   0.000000
   28        1.049265   0.000000
   29        2.661026   0.000000
   30        2.689666   0.000000
   31        2.693329   0.000000
   32        2.695628   0.000000
   33        3.660602   0.000000
   34        3.661957   0.000000
   35        3.670290   0.000000
   36        3.671206   0.000000
   37        4.858429   0.000000
   38        4.858917   0.000000
   39        4.860227   0.000000
   40        4.867069   0.000000
   41        5.387767   0.000000
   42        5.398493   0.000000
   43        5.399864   0.000000
   44        5.402863   0.000000
   45        5.938287   0.000000
   46        5.939102   0.000000
   47        5.942204   0.000000
   48        5.942249   0.000000
   49        6.024415   0.000000
   50        6.028171   0.000000
   51        6.028213   0.000000
   52        6.028539   0.000000
   53        6.580654   0.000000
   54        6.580754   0.000000
   55        6.582048   0.000000
   56        6.586866   0.000000
   57        6.787764   0.000000
   58        6.792664   0.000000
   59        6.795955   0.000000
   60        6.796267   0.000000
   61        7.109251   0.000000
   62        7.112739   0.000000
   63        7.117786   0.000000
   64        7.119290   0.000000
   65        7.170243   0.000000
   66        7.170836   0.000000
   67        7.172510   0.000000
   68        7.174275   0.000000
   69        7.328768   0.000000
   70        7.330387   0.000000
   71        7.330522   0.000000
   72        7.331482   0.000000
   73        7.847816   0.000000
   74        7.849747   0.000000
   75        7.850114   0.000000
   76        7.852794   0.000000
   77        8.061169   0.000000
   78        8.067082   0.000000
   79        8.074518   0.000000
   80        8.076721   0.000000
   81        8.362120   0.000000
   82        8.365866   0.000000
   83        8.367131   0.000000
   84        8.373571   0.000000
   85        8.610171   0.000000
   86        8.611503   0.000000
   87        8.614455   0.000000
   88        8.614972   0.000000
   89        9.069403   0.000000
   90        9.070302   0.000000
   91        9.070850   0.000000
   92        9.072134   0.000000
   93        9.414038   0.000000
   94        9.414554   0.000000
   95        9.414606   0.000000
   96        9.416999   0.000000
   97        9.997036   0.000000
   98        9.999816   0.000000
   99       10.002451   0.000000
  100       10.002524   0.000000
  101       10.347976   0.000000
  102       10.353809   0.000000
  103       10.355202   0.000000
  104       10.356333   0.000000
  105       10.817277   0.000000
  106       10.819982   0.000000
  107       10.820331   0.000000
  108       10.820729   0.000000
  109       11.111565   0.000000
  110       11.114893   0.000000
  111       11.119849   0.000000
  112       11.123862   0.000000
  113       11.533077   0.000000
  114       11.534979   0.000000
  115       11.535727   0.000000
  116       11.538990   0.000000
  117       11.852339   0.000000
  118       11.857569   0.000000
  119       11.860707   0.000000
  120       11.863390   0.000000
  121       12.253010   0.000000
  122       12.256270   0.000000
  123       12.258555   0.000000
  124       12.262113   0.000000
  125       12.633283   0.000000
  126       12.640197   0.000000
  127       12.640516   0.000000
  128       12.650891   0.000000
  129       12.886729   0.000000
  130       12.889371   0.000000
  131       12.892080   0.000000
  132       12.895354   0.000000
  133       13.762459   0.000000
  134       13.762838   0.000000
  135       13.772101   0.000000
  136       13.773287   0.000000
  137       14.227365   0.000000
  138       14.232625   0.000000
  139       14.234920   0.000000
  140       14.238606   0.000000
  141       14.793358   0.000000
  142       14.794881   0.000000
  143       14.798248   0.000000
  144       14.802980   0.000000
 
  0.5000000E+00  0.4200000E+00  0.0000000E+00  0.4901961E-02
    1      -15.542919   1.000000
    2      -15.542753   1.000000
    3      -15.538121   1.000000
    4      -15.537810   1.000000
    5      -10.896409   1.000000
    6      -10.896270   1.000000
    7      -10.892123   1.000000
    8      -10.892010   1.000000
    9       -7.356191   1.000000
   10       -7.355155   1.000000
   11       -7.343578   1.000000
   12       -7.333503   1.000000
   13       -6.752319   1.000000
   14       -6.751171   1.000000
   15       -6.713209   1.000000
   16       -6.702273   1.000000
   17       -4.383206   1.000000
   18       -4.382166   1.000000
   19       -4.343653   1.000000
   20       -4.341770   1.000000
   21        0.101344   0.000000
   22        0.134898   0.000000
   23        0.175917   0.000000
   24        0.191239   0.000000
   25        1.031965   0.000000
   26        1.033023   0.000000
   27        1.039203   0.000000
   28        1.079384   0.000000
   29        2.692250   0.000000
   30        2.718998   0.000000
   31        2.723325   0.000000
   32        2.725382   0.000000
   33        3.689130   0.000000
   34        3.690272   0.000000
   35        3.698235   0.000000
   36        3.699236   0.000000
   37        4.844852   0.000000
   38        4.846235   0.000000
   39        4.846741   0.000000
   40        4.854491   0.000000
   41        5.435284   0.000000
   42        5.446315   0.000000
   43        5.447021   0.000000
   44        5.450213   0.000000
   45        5.986237   0.000000
   46        5.986608   0.000000
   47        5.990263   0.000000
   48        5.991010   0.000000
   49        6.072583   0.000000
   50        6.075078   0.000000
   51        6.075553   0.000000
   52        6.075580   0.000000
   53        6.536978   0.000000
   54        6.538152   0.000000
   55        6.539075   0.000000
   56        6.544170   0.000000
   57        6.808777   0.000000
   58        6.813110   0.000000
   59        6.818098   0.000000
   60        6.818107   0.000000
   61        7.054701   0.000000
   62        7.054816   0.000000
   63        7.058119   0.000000
   64        7.058512   0.000000
   65        7.162894   0.000000
   66        7.165425   0.000000
   67        7.165445   0.000000
   68        7.165780   0.000000
   69        7.276778   0.000000
   70        7.277267   0.000000
   71        7.277312   0.000000
   72        7.277516   0.000000
   73        7.778747   0.000000
   74        7.781258   0.000000
   75        7.781443   0.000000
   76        7.782604   0.000000
   77        8.055488   0.000000
   78        8.065644   0.000000
   79        8.069407   0.000000
   80        8.071292   0.000000
   81        8.303594   0.000000
   82        8.305765   0.000000
   83        8.307319   0.000000
   84        8.313985   0.000000
   85        8.633256   0.000000
   86        8.635664   0.000000
   87        8.636798   0.000000
   88        8.638167   0.000000
   89        9.030513   0.000000
   90        9.031927   0.000000
   91        9.033605   0.000000
   92        9.033646   0.000000
   93        9.392873   0.000000
   94        9.393998   0.000000
   95        9.394430   0.000000
   96        9.396476   0.000000
   97        9.971419   0.000000
   98        9.973979   0.000000
   99        9.976418   0.000000
  100        9.976600   0.000000
  101       10.326871   0.000000
  102       10.332046   0.000000
  103       10.333332   0.000000
  104       10.334799   0.000000
  105       10.828043   0.000000
  106       10.830278   0.000000
  107       10.831241   0.000000
  108       10.832259   0.000000
  109       11.108762   0.000000
  110       11.111918   0.000000
  111       11.118586   0.000000
  112       11.122625   0.000000
  113       11.565484   0.000000
  114       11.566337   0.000000
  115       11.567131   0.000000
  116       11.569524   0.000000
  117       11.885695   0.000000
  118       11.889516   0.000000
  119       11.892030   0.000000
  120       11.894596   0.000000
  121       12.204590   0.000000
  122       12.207232   0.000000
  123       12.211157   0.000000
  124       12.214135   0.000000
  125       12.637895   0.000000
  126       12.644017   0.000000
  127       12.644722   0.000000
  128       12.654048   0.000000
  129       12.833509   0.000000
  130       12.834916   0.000000
  131       12.839216   0.000000
  132       12.842064   0.000000
  133       13.775311   0.000000
  134       13.776322   0.000000
  135       13.785005   0.000000
  136       13.785808   0.000000
  137       14.243341   0.000000
  138       14.248613   0.000000
  139       14.250655   0.000000
  140       14.254426   0.000000
  141       14.759565   0.000000
  142       14.761095   0.000000
  143       14.768249   0.000000
  144       14.769188   0.000000
 
  0.5000000E+00  0.4300000E+00  0.0000000E+00  0.4901961E-02
    1      -15.540692   1.000000
    2      -15.540546   1.000000
    3      -15.535841   1.000000
    4      -15.535567   1.000000
    5      -10.894328   1.000000
    6      -10.894200   1.000000
    7      -10.890018   1.000000
    8      -10.889922   1.000000
    9       -7.357827   1.000000
   10       -7.356874   1.000000
   11       -7.345348   1.000000
   12       -7.336118   1.000000
   13       -6.776793   1.000000
   14       -6.775838   1.000000
   15       -6.736734   1.000000
   16       -6.726758   1.000000
   17       -4.383696   1.000000
   18       -4.382808   1.000000
   19       -4.344155   1.000000
   20       -4.342511   1.000000
   21        0.118128   0.000000
   22        0.147319   0.000000
   23        0.191110   0.000000
   24        0.204234   0.000000
   25        1.064903   0.000000
   26        1.067336   0.000000
   27        1.070513   0.000000
   28        1.107999   0.000000
   29        2.718568   0.000000
   30        2.743041   0.000000
   31        2.748168   0.000000
   32        2.749948   0.000000
   33        3.716829   0.000000
   34        3.717877   0.000000
   35        3.725240   0.000000
   36        3.726329   0.000000
   37        4.832885   0.000000
   38        4.834677   0.000000
   39        4.835192   0.000000
   40        4.843296   0.000000
   41        5.483348   0.000000
   42        5.494499   0.000000
   43        5.494603   0.000000
   44        5.497927   0.000000
   45        6.033131   0.000000
   46        6.033330   0.000000
   47        6.037099   0.000000
   48        6.038671   0.000000
   49        6.122170   0.000000
   50        6.123241   0.000000
   51        6.123945   0.000000
   52        6.124313   0.000000
   53        6.487745   0.000000
   54        6.488378   0.000000
   55        6.490583   0.000000
   56        6.494334   0.000000
   57        6.834190   0.000000
   58        6.837943   0.000000
   59        6.842508   0.000000
   60        6.843366   0.000000
   61        6.990408   0.000000
   62        6.990728   0.000000
   63        6.991096   0.000000
   64        6.992540   0.000000
   65        7.120404   0.000000
   66        7.121240   0.000000
   67        7.122408   0.000000
   68        7.122479   0.000000
   69        7.279551   0.000000
   70        7.281226   0.000000
   71        7.281952   0.000000
   72        7.283016   0.000000
   73        7.708745   0.000000
   74        7.710943   0.000000
   75        7.711056   0.000000
   76        7.711118   0.000000
   77        8.044176   0.000000
   78        8.056418   0.000000
   79        8.056517   0.000000
   80        8.057138   0.000000
   81        8.255732   0.000000
   82        8.256812   0.000000
   83        8.259861   0.000000
   84        8.264299   0.000000
   85        8.655013   0.000000
   86        8.657479   0.000000
   87        8.658254   0.000000
   88        8.658662   0.000000
   89        8.995047   0.000000
   90        8.997864   0.000000
   91        8.998113   0.000000
   92        8.999786   0.000000
   93        9.376101   0.000000
   94        9.378781   0.000000
   95        9.378922   0.000000
   96        9.380118   0.000000
   97        9.944555   0.000000
   98        9.946589   0.000000
   99        9.948598   0.000000
  100        9.949001   0.000000
  101       10.303610   0.000000
  102       10.307853   0.000000
  103       10.309013   0.000000
  104       10.310506   0.000000
  105       10.844372   0.000000
  106       10.845275   0.000000
  107       10.848254   0.000000
  108       10.849690   0.000000
  109       11.108293   0.000000
  110       11.111422   0.000000
  111       11.119066   0.000000
  112       11.123339   0.000000
  113       11.596085   0.000000
  114       11.597117   0.000000
  115       11.598531   0.000000
  116       11.599278   0.000000
  117       11.909086   0.000000
  118       11.910997   0.000000
  119       11.912778   0.000000
  120       11.914141   0.000000
  121       12.161235   0.000000
  122       12.164084   0.000000
  123       12.169739   0.000000
  124       12.171341   0.000000
  125       12.638193   0.000000
  126       12.644370   0.000000
  127       12.645252   0.000000
  128       12.652280   0.000000
  129       12.798810   0.000000
  130       12.800333   0.000000
  131       12.805907   0.000000
  132       12.809129   0.000000
  133       13.780266   0.000000
  134       13.782098   0.000000
  135       13.790001   0.000000
  136       13.790042   0.000000
  137       14.253924   0.000000
  138       14.258608   0.000000
  139       14.260420   0.000000
  140       14.263722   0.000000
  141       14.743408   0.000000
  142       14.745173   0.000000
  143       14.749347   0.000000
  144       14.754409   0.000000
 
  0.5000000E+00  0.4400000E+00  0.0000000E+00  0.4901961E-02
    1      -15.538738   1.000000
    2      -15.538613   1.000000
    3      -15.533841   1.000000
    4      -15.533605   1.000000
    5      -10.892517   1.000000
    6      -10.892401   1.000000
    7      -10.888187   1.000000
    8      -10.888107   1.000000
    9       -7.358661   1.000000
   10       -7.357805   1.000000
   11       -7.346260   1.000000
   12       -7.338001   1.000000
   13       -6.798701   1.000000
   14       -6.797923   1.000000
   15       -6.757634   1.000000
   16       -6.748741   1.000000
   17       -4.384068   1.000000
   18       -4.383322   1.000000
   19       -4.344531   1.000000
   20       -4.343124   1.000000
   21        0.132112   0.000000
   22        0.156941   0.000000
   23        0.203429   0.000000
   24        0.214439   0.000000
   25        1.095485   0.000000
   26        1.099457   0.000000
   27        1.099693   0.000000
   28        1.134322   0.000000
   29        2.740420   0.000000
   30        2.762243   0.000000
   31        2.768326   0.000000
   32        2.769812   0.000000
   33        3.742924   0.000000
   34        3.743970   0.000000
   35        3.750517   0.000000
   36        3.751694   0.000000
   37        4.822594   0.000000
   38        4.824160   0.000000
   39        4.825870   0.000000
   40        4.833543   0.000000
   41        5.531522   0.000000
   42        5.542162   0.000000
   43        5.542592   0.000000
   44        5.545538   0.000000
   45        6.077825   0.000000
   46        6.078354   0.000000
   47        6.081333   0.000000
   48        6.083920   0.000000
   49        6.170760   0.000000
   50        6.171171   0.000000
   51        6.171895   0.000000
   52        6.172610   0.000000
   53        6.441628   0.000000
   54        6.442000   0.000000
   55        6.444570   0.000000
   56        6.446838   0.000000
   57        6.839543   0.000000
   58        6.842634   0.000000
   59        6.844015   0.000000
   60        6.846226   0.000000
   61        6.949841   0.000000
   62        6.952221   0.000000
   63        6.952476   0.000000
   64        6.954074   0.000000
   65        7.052290   0.000000
   66        7.053983   0.000000
   67        7.054174   0.000000
   68        7.054378   0.000000
   69        7.314145   0.000000
   70        7.317174   0.000000
   71        7.317841   0.000000
   72        7.318154   0.000000
   73        7.640675   0.000000
   74        7.641440   0.000000
   75        7.641918   0.000000
   76        7.642165   0.000000
   77        8.019303   0.000000
   78        8.026900   0.000000
   79        8.027850   0.000000
   80        8.030517   0.000000
   81        8.224738   0.000000
   82        8.228054   0.000000
   83        8.230027   0.000000
   84        8.230879   0.000000
   85        8.672726   0.000000
   86        8.673771   0.000000
   87        8.674021   0.000000
   88        8.676471   0.000000
   89        8.965292   0.000000
   90        8.968150   0.000000
   91        8.970571   0.000000
   92        8.971373   0.000000
   93        9.363235   0.000000
   94        9.366829   0.000000
   95        9.366910   0.000000
   96        9.367182   0.000000
   97        9.918735   0.000000
   98        9.920033   0.000000
   99        9.921528   0.000000
  100        9.922160   0.000000
  101       10.278714   0.000000
  102       10.281958   0.000000
  103       10.282980   0.000000
  104       10.284308   0.000000
  105       10.864165   0.000000
  106       10.864522   0.000000
  107       10.869360   0.000000
  108       10.871062   0.000000
  109       11.109560   0.000000
  110       11.112918   0.000000
  111       11.120687   0.000000
  112       11.125429   0.000000
  113       11.624315   0.000000
  114       11.627221   0.000000
  115       11.627632   0.000000
  116       11.628461   0.000000
  117       11.919536   0.000000
  118       11.919888   0.000000
  119       11.920000   0.000000
  120       11.920840   0.000000
  121       12.127669   0.000000
  122       12.131515   0.000000
  123       12.138103   0.000000
  124       12.138623   0.000000
  125       12.616575   0.000000
  126       12.620681   0.000000
  127       12.624055   0.000000
  128       12.627345   0.000000
  129       12.799228   0.000000
  130       12.804180   0.000000
  131       12.807948   0.000000
  132       12.812987   0.000000
  133       13.775018   0.000000
  134       13.777712   0.000000
  135       13.783694   0.000000
  136       13.784640   0.000000
  137       14.260362   0.000000
  138       14.263882   0.000000
  139       14.265407   0.000000
  140       14.267886   0.000000
  141       14.744423   0.000000
  142       14.747681   0.000000
  143       14.750530   0.000000
  144       14.755237   0.000000
 
  0.5000000E+00  0.4500000E+00  0.0000000E+00  0.4901961E-02
    1      -15.537070   1.000000
    2      -15.536966   1.000000
    3      -15.532130   1.000000
    4      -15.531933   1.000000
    5      -10.890978   1.000000
    6      -10.890878   1.000000
    7      -10.886634   1.000000
    8      -10.886568   1.000000
    9       -7.358881   1.000000
   10       -7.358138   1.000000
   11       -7.346480   1.000000
   12       -7.339325   1.000000
   13       -6.817800   1.000000
   14       -6.817181   1.000000
   15       -6.775679   1.000000
   16       -6.767999   1.000000
   17       -4.384342   1.000000
   18       -4.383731   1.000000
   19       -4.344800   1.000000
   20       -4.343629   1.000000
   21        0.143632   0.000000
   22        0.164150   0.000000
   23        0.213279   0.000000
   24        0.222270   0.000000
   25        1.122877   0.000000
   26        1.125922   0.000000
   27        1.128573   0.000000
   28        1.157603   0.000000
   29        2.758260   0.000000
   30        2.777077   0.000000
   31        2.784291   0.000000
   32        2.785485   0.000000
   33        3.766658   0.000000
   34        3.767765   0.000000
   35        3.773298   0.000000
   36        3.774558   0.000000
   37        4.813984   0.000000
   38        4.815253   0.000000
   39        4.818278   0.000000
   40        4.825235   0.000000
   41        5.579184   0.000000
   42        5.589059   0.000000
   43        5.589937   0.000000
   44        5.592377   0.000000
   45        6.117144   0.000000
   46        6.118810   0.000000
   47        6.119154   0.000000
   48        6.123158   0.000000
   49        6.214150   0.000000
   50        6.215545   0.000000
   51        6.215892   0.000000
   52        6.216741   0.000000
   53        6.407897   0.000000
   54        6.409977   0.000000
   55        6.411109   0.000000
   56        6.411729   0.000000
   57        6.798164   0.000000
   58        6.799660   0.000000
   59        6.799734   0.000000
   60        6.801680   0.000000
   61        6.949957   0.000000
   62        6.952399   0.000000
   63        6.952909   0.000000
   64        6.953110   0.000000
   65        6.992730   0.000000
   66        6.994243   0.000000
   67        6.996551   0.000000
   68        6.996562   0.000000
   69        7.355261   0.000000
   70        7.358267   0.000000
   71        7.358599   0.000000
   72        7.359542   0.000000
   73        7.576829   0.000000
   74        7.577225   0.000000
   75        7.577826   0.000000
   76        7.577932   0.000000
   77        7.978755   0.000000
   78        7.981059   0.000000
   79        7.983459   0.000000
   80        7.986549   0.000000
   81        8.213156   0.000000
   82        8.215127   0.000000
   83        8.216489   0.000000
   84        8.217645   0.000000
   85        8.681578   0.000000
   86        8.684095   0.000000
   87        8.684318   0.000000
   88        8.687724   0.000000
   89        8.943636   0.000000
   90        8.946501   0.000000
   91        8.950521   0.000000
   92        8.952183   0.000000
   93        9.353193   0.000000
   94        9.355952   0.000000
   95        9.357148   0.000000
   96        9.357839   0.000000
   97        9.895664   0.000000
   98        9.896139   0.000000
   99        9.897158   0.000000
  100        9.897932   0.000000
  101       10.253456   0.000000
  102       10.255769   0.000000
  103       10.256647   0.000000
  104       10.257716   0.000000
  105       10.884991   0.000000
  106       10.886368   0.000000
  107       10.892503   0.000000
  108       10.894359   0.000000
  109       11.111922   0.000000
  110       11.115852   0.000000
  111       11.122795   0.000000
  112       11.128254   0.000000
  113       11.650542   0.000000
  114       11.654137   0.000000
  115       11.655167   0.000000
  116       11.656349   0.000000
  117       11.910926   0.000000
  118       11.913096   0.000000
  119       11.914471   0.000000
  120       11.915692   0.000000
  121       12.109363   0.000000
  122       12.114325   0.000000
  123       12.119059   0.000000
  124       12.121749   0.000000
  125       12.575384   0.000000
  126       12.577573   0.000000
  127       12.581947   0.000000
  128       12.583481   0.000000
  129       12.831791   0.000000
  130       12.838324   0.000000
  131       12.840186   0.000000
  132       12.846538   0.000000
  133       13.758748   0.000000
  134       13.762184   0.000000
  135       13.766086   0.000000
  136       13.768010   0.000000
  137       14.265299   0.000000
  138       14.267330   0.000000
  139       14.268606   0.000000
  140       14.270132   0.000000
  141       14.759827   0.000000
  142       14.763918   0.000000
  143       14.767617   0.000000
  144       14.772110   0.000000
 
  0.5000000E+00  0.4600000E+00  0.0000000E+00  0.4901961E-02
    1      -15.535692   1.000000
    2      -15.535609   1.000000
    3      -15.530716   1.000000
    4      -15.530558   1.000000
    5      -10.889714   1.000000
    6      -10.889631   1.000000
    7      -10.885360   1.000000
    8      -10.885309   1.000000
    9       -7.358681   1.000000
   10       -7.358066   1.000000
   11       -7.346181   1.000000
   12       -7.340261   1.000000
   13       -6.833845   1.000000
   14       -6.833372   1.000000
   15       -6.790647   1.000000
   16       -6.784309   1.000000
   17       -4.384533   1.000000
   18       -4.384052   1.000000
   19       -4.344977   1.000000
   20       -4.344041   1.000000
   21        0.152989   0.000000
   22        0.169270   0.000000
   23        0.221010   0.000000
   24        0.228075   0.000000
   25        1.146352   0.000000
   26        1.148463   0.000000
   27        1.153967   0.000000
   28        1.177158   0.000000
   29        2.772535   0.000000
   30        2.788023   0.000000
   31        2.796558   0.000000
   32        2.797475   0.000000
   33        3.787326   0.000000
   34        3.788526   0.000000
   35        3.792872   0.000000
   36        3.794205   0.000000
   37        4.807021   0.000000
   38        4.807975   0.000000
   39        4.812371   0.000000
   40        4.818337   0.000000
   41        5.625362   0.000000
   42        5.634285   0.000000
   43        5.635494   0.000000
   44        5.637384   0.000000
   45        6.141154   0.000000
   46        6.142757   0.000000
   47        6.146373   0.000000
   48        6.146964   0.000000
   49        6.250539   0.000000
   50        6.250827   0.000000
   51        6.252590   0.000000
   52        6.252634   0.000000
   53        6.401610   0.000000
   54        6.403904   0.000000
   55        6.404542   0.000000
   56        6.405477   0.000000
   57        6.737518   0.000000
   58        6.738074   0.000000
   59        6.738907   0.000000
   60        6.740227   0.000000
   61        6.894762   0.000000
   62        6.896858   0.000000
   63        6.897595   0.000000
   64        6.897787   0.000000
   65        7.012099   0.000000
   66        7.012648   0.000000
   67        7.017604   0.000000
   68        7.019288   0.000000
   69        7.388890   0.000000
   70        7.389026   0.000000
   71        7.390626   0.000000
   72        7.393021   0.000000
   73        7.526293   0.000000
   74        7.527044   0.000000
   75        7.527233   0.000000
   76        7.529996   0.000000
   77        7.926164   0.000000
   78        7.927351   0.000000
   79        7.929526   0.000000
   80        7.931857   0.000000
   81        8.211961   0.000000
   82        8.213289   0.000000
   83        8.215344   0.000000
   84        8.216062   0.000000
   85        8.681769   0.000000
   86        8.687488   0.000000
   87        8.687916   0.000000
   88        8.690487   0.000000
   89        8.931472   0.000000
   90        8.934956   0.000000
   91        8.938349   0.000000
   92        8.943165   0.000000
   93        9.345103   0.000000
   94        9.346665   0.000000
   95        9.348975   0.000000
   96        9.349808   0.000000
   97        9.876164   0.000000
   98        9.876467   0.000000
   99        9.876846   0.000000
  100        9.877597   0.000000
  101       10.229454   0.000000
  102       10.230975   0.000000
  103       10.231705   0.000000
  104       10.232488   0.000000
  105       10.905731   0.000000
  106       10.907756   0.000000
  107       10.915569   0.000000
  108       10.917467   0.000000
  109       11.114838   0.000000
  110       11.119715   0.000000
  111       11.124817   0.000000
  112       11.131216   0.000000
  113       11.674602   0.000000
  114       11.678696   0.000000
  115       11.680575   0.000000
  116       11.681933   0.000000
  117       11.889962   0.000000
  118       11.893581   0.000000
  119       11.895160   0.000000
  120       11.897144   0.000000
  121       12.107838   0.000000
  122       12.113122   0.000000
  123       12.115404   0.000000
  124       12.119291   0.000000
  125       12.527943   0.000000
  126       12.529004   0.000000
  127       12.533510   0.000000
  128       12.534244   0.000000
  129       12.878548   0.000000
  130       12.885597   0.000000
  131       12.886051   0.000000
  132       12.892899   0.000000
  133       13.733002   0.000000
  134       13.736841   0.000000
  135       13.738966   0.000000
  136       13.741587   0.000000
  137       14.270684   0.000000
  138       14.271595   0.000000
  139       14.272207   0.000000
  140       14.272759   0.000000
  141       14.786311   0.000000
  142       14.790217   0.000000
  143       14.793190   0.000000
  144       14.798549   0.000000
 
  0.5000000E+00  0.4700000E+00  0.0000000E+00  0.4901961E-02
    1      -15.534612   1.000000
    2      -15.534550   1.000000
    3      -15.529606   1.000000
    4      -15.529487   1.000000
    5      -10.888727   1.000000
    6      -10.888664   1.000000
    7      -10.884367   1.000000
    8      -10.884329   1.000000
    9       -7.358256   1.000000
   10       -7.357782   1.000000
   11       -7.345539   1.000000
   12       -7.340975   1.000000
   13       -6.846605   1.000000
   14       -6.846263   1.000000
   15       -6.802333   1.000000
   16       -6.797457   1.000000
   17       -4.384656   1.000000
   18       -4.384299   1.000000
   19       -4.345075   1.000000
   20       -4.344375   1.000000
   21        0.160433   0.000000
   22        0.172557   0.000000
   23        0.226909   0.000000
   24        0.232130   0.000000
   25        1.165291   0.000000
   26        1.166675   0.000000
   27        1.175023   0.000000
   28        1.192390   0.000000
   29        2.783648   0.000000
   30        2.795528   0.000000
   31        2.805580   0.000000
   32        2.806241   0.000000
   33        3.804298   0.000000
   34        3.805597   0.000000
   35        3.808610   0.000000
   36        3.810006   0.000000
   37        4.801665   0.000000
   38        4.802324   0.000000
   39        4.808086   0.000000
   40        4.812810   0.000000
   41        5.668434   0.000000
   42        5.676162   0.000000
   43        5.677528   0.000000
   44        5.678780   0.000000
   45        6.138254   0.000000
   46        6.144207   0.000000
   47        6.144809   0.000000
   48        6.148804   0.000000
   49        6.282864   0.000000
   50        6.285954   0.000000
   51        6.287053   0.000000
   52        6.288238   0.000000
   53        6.428299   0.000000
   54        6.430140   0.000000
   55        6.430906   0.000000
   56        6.432659   0.000000
   57        6.675500   0.000000
   58        6.675523   0.000000
   59        6.677302   0.000000
   60        6.678120   0.000000
   61        6.824139   0.000000
   62        6.826255   0.000000
   63        6.826682   0.000000
   64        6.827140   0.000000
   65        7.056577   0.000000
   66        7.058014   0.000000
   67        7.062088   0.000000
   68        7.063773   0.000000
   69        7.381862   0.000000
   70        7.382742   0.000000
   71        7.385262   0.000000
   72        7.386835   0.000000
   73        7.517541   0.000000
   74        7.519184   0.000000
   75        7.521743   0.000000
   76        7.524079   0.000000
   77        7.867949   0.000000
   78        7.871027   0.000000
   79        7.871909   0.000000
   80        7.873161   0.000000
   81        8.215160   0.000000
   82        8.218090   0.000000
   83        8.218810   0.000000
   84        8.219321   0.000000
   85        8.676588   0.000000
   86        8.684712   0.000000
   87        8.685280   0.000000
   88        8.685874   0.000000
   89        8.927831   0.000000
   90        8.932630   0.000000
   91        8.933792   0.000000
   92        8.941443   0.000000
   93        9.338397   0.000000
   94        9.339033   0.000000
   95        9.341868   0.000000
   96        9.342610   0.000000
   97        9.860797   0.000000
   98        9.861337   0.000000
   99        9.861685   0.000000
  100        9.861870   0.000000
  101       10.208406   0.000000
  102       10.209311   0.000000
  103       10.209884   0.000000
  104       10.210403   0.000000
  105       10.924460   0.000000
  106       10.926664   0.000000
  107       10.936498   0.000000
  108       10.938277   0.000000
  109       11.117883   0.000000
  110       11.124024   0.000000
  111       11.126291   0.000000
  112       11.133764   0.000000
  113       11.696723   0.000000
  114       11.701600   0.000000
  115       11.703463   0.000000
  116       11.705380   0.000000
  117       11.862745   0.000000
  118       11.867026   0.000000
  119       11.868256   0.000000
  120       11.870335   0.000000
  121       12.118404   0.000000
  122       12.123215   0.000000
  123       12.123345   0.000000
  124       12.127338   0.000000
  125       12.482025   0.000000
  126       12.482378   0.000000
  127       12.486627   0.000000
  128       12.486818   0.000000
  129       12.928104   0.000000
  130       12.934387   0.000000
  131       12.935292   0.000000
  132       12.941396   0.000000
  133       13.701856   0.000000
  134       13.705592   0.000000
  135       13.706635   0.000000
  136       13.709470   0.000000
  137       14.276517   0.000000
  138       14.276580   0.000000
  139       14.276920   0.000000
  140       14.277060   0.000000
  141       14.816302   0.000000
  142       14.818433   0.000000
  143       14.824315   0.000000
  144       14.850646   0.000000
 
  0.5000000E+00  0.4800000E+00  0.0000000E+00  0.4901961E-02
    1      -15.533834   1.000000
    2      -15.533793   1.000000
    3      -15.528804   1.000000
    4      -15.528724   1.000000
    5      -10.888018   1.000000
    6      -10.887975   1.000000
    7      -10.883656   1.000000
    8      -10.883631   1.000000
    9       -7.357781   1.000000
   10       -7.357459   1.000000
   11       -7.344712   1.000000
   12       -7.341605   1.000000
   13       -6.855872   1.000000
   14       -6.855651   1.000000
   15       -6.810567   1.000000
   16       -6.807254   1.000000
   17       -4.384720   1.000000
   18       -4.384484   1.000000
   19       -4.345106   1.000000
   20       -4.344639   1.000000
   21        0.166170   0.000000
   22        0.174209   0.000000
   23        0.231202   0.000000
   24        0.234645   0.000000
   25        1.179214   0.000000
   26        1.180037   0.000000
   27        1.191250   0.000000
   28        1.202813   0.000000
   29        2.791934   0.000000
   30        2.799984   0.000000
   31        2.811750   0.000000
   32        2.812176   0.000000
   33        3.817053   0.000000
   34        3.818437   0.000000
   35        3.820007   0.000000
   36        3.821450   0.000000
   37        4.797882   0.000000
   38        4.798285   0.000000
   39        4.805348   0.000000
   40        4.808623   0.000000
   41        5.705653   0.000000
   42        5.711873   0.000000
   43        5.713131   0.000000
   44        5.713558   0.000000
   45        6.119523   0.000000
   46        6.125051   0.000000
   47        6.127841   0.000000
   48        6.131566   0.000000
   49        6.320976   0.000000
   50        6.323813   0.000000
   51        6.327129   0.000000
   52        6.327950   0.000000
   53        6.474613   0.000000
   54        6.476838   0.000000
   55        6.477230   0.000000
   56        6.478665   0.000000
   57        6.617664   0.000000
   58        6.617934   0.000000
   59        6.620177   0.000000
   60        6.620629   0.000000
   61        6.755247   0.000000
   62        6.757010   0.000000
   63        6.757267   0.000000
   64        6.758265   0.000000
   65        7.106171   0.000000
   66        7.108243   0.000000
   67        7.111207   0.000000
   68        7.112965   0.000000
   69        7.336755   0.000000
   70        7.338261   0.000000
   71        7.340723   0.000000
   72        7.341656   0.000000
   73        7.551135   0.000000
   74        7.554720   0.000000
   75        7.557050   0.000000
   76        7.557520   0.000000
   77        7.810485   0.000000
   78        7.814303   0.000000
   79        7.814711   0.000000
   80        7.814867   0.000000
   81        8.220496   0.000000
   82        8.223384   0.000000
   83        8.223480   0.000000
   84        8.223765   0.000000
   85        8.669851   0.000000
   86        8.677404   0.000000
   87        8.679090   0.000000
   88        8.679565   0.000000
   89        8.929503   0.000000
   90        8.933835   0.000000
   91        8.936022   0.000000
   92        8.943278   0.000000
   93        9.332761   0.000000
   94        9.333751   0.000000
   95        9.335815   0.000000
   96        9.336457   0.000000
   97        9.850188   0.000000
   98        9.850777   0.000000
   99        9.850879   0.000000
  100        9.851406   0.000000
  101       10.191950   0.000000
  102       10.192417   0.000000
  103       10.192818   0.000000
  104       10.193123   0.000000
  105       10.939467   0.000000
  106       10.941336   0.000000
  107       10.953371   0.000000
  108       10.954799   0.000000
  109       11.120745   0.000000
  110       11.126890   0.000000
  111       11.128263   0.000000
  112       11.135382   0.000000
  113       11.717290   0.000000
  114       11.723323   0.000000
  115       11.723979   0.000000
  116       11.727086   0.000000
  117       11.834846   0.000000
  118       11.839386   0.000000
  119       11.839513   0.000000
  120       11.841614   0.000000
  121       12.134328   0.000000
  122       12.136958   0.000000
  123       12.138430   0.000000
  124       12.140582   0.000000
  125       12.442510   0.000000
  126       12.442674   0.000000
  127       12.445875   0.000000
  128       12.446133   0.000000
  129       12.972400   0.000000
  130       12.977043   0.000000
  131       12.979602   0.000000
  132       12.984118   0.000000
  133       13.671464   0.000000
  134       13.674513   0.000000
  135       13.675357   0.000000
  136       13.677807   0.000000
  137       14.281232   0.000000
  138       14.281428   0.000000
  139       14.282588   0.000000
  140       14.282795   0.000000
  141       14.843404   0.000000
  142       14.847507   0.000000
  143       14.859520   0.000000
  144       14.876121   0.000000
 
  0.5000000E+00  0.4900000E+00  0.0000000E+00  0.4901961E-02
    1      -15.533362   1.000000
    2      -15.533341   1.000000
    3      -15.528313   1.000000
    4      -15.528273   1.000000
    5      -10.887588   1.000000
    6      -10.887566   1.000000
    7      -10.883226   1.000000
    8      -10.883214   1.000000
    9       -7.357401   1.000000
   10       -7.357238   1.000000
   11       -7.343834   1.000000
   12       -7.342262   1.000000
   13       -6.861482   1.000000
   14       -6.861374   1.000000
   15       -6.815218   1.000000
   16       -6.813542   1.000000
   17       -4.384732   1.000000
   18       -4.384615   1.000000
   19       -4.345074   1.000000
   20       -4.344840   1.000000
   21        0.170349   0.000000
   22        0.174355   0.000000
   23        0.234053   0.000000
   24        0.235763   0.000000
   25        1.187771   0.000000
   26        1.188153   0.000000
   27        1.202287   0.000000
   28        1.208064   0.000000
   29        2.797634   0.000000
   30        2.801699   0.000000
   31        2.815367   0.000000
   32        2.815575   0.000000
   33        3.825186   0.000000
   34        3.826621   0.000000
   35        3.826698   0.000000
   36        3.828159   0.000000
   37        4.795651   0.000000
   38        4.795840   0.000000
   39        4.804088   0.000000
   40        4.805764   0.000000
   41        5.732675   0.000000
   42        5.737023   0.000000
   43        5.737129   0.000000
   44        5.737849   0.000000
   45        6.101467   0.000000
   46        6.104685   0.000000
   47        6.110524   0.000000
   48        6.112561   0.000000
   49        6.357519   0.000000
   50        6.359314   0.000000
   51        6.364112   0.000000
   52        6.364626   0.000000
   53        6.525875   0.000000
   54        6.528531   0.000000
   55        6.528740   0.000000
   56        6.529268   0.000000
   57        6.571859   0.000000
   58        6.571876   0.000000
   59        6.574382   0.000000
   60        6.574708   0.000000
   61        6.692923   0.000000
   62        6.693815   0.000000
   63        6.694014   0.000000
   64        6.695588   0.000000
   65        7.157289   0.000000
   66        7.159723   0.000000
   67        7.161451   0.000000
   68        7.163262   0.000000
   69        7.283080   0.000000
   70        7.286244   0.000000
   71        7.286447   0.000000
   72        7.288878   0.000000
   73        7.594120   0.000000
   74        7.598642   0.000000
   75        7.598830   0.000000
   76        7.600303   0.000000
   77        7.759664   0.000000
   78        7.762646   0.000000
   79        7.762950   0.000000
   80        7.763336   0.000000
   81        8.225260   0.000000
   82        8.227008   0.000000
   83        8.227082   0.000000
   84        8.227216   0.000000
   85        8.665182   0.000000
   86        8.669386   0.000000
   87        8.674088   0.000000
   88        8.674320   0.000000
   89        8.932771   0.000000
   90        8.935041   0.000000
   91        8.940994   0.000000
   92        8.945052   0.000000
   93        9.329319   0.000000
   94        9.330705   0.000000
   95        9.331183   0.000000
   96        9.332106   0.000000
   97        9.844114   0.000000
   98        9.844451   0.000000
   99        9.844871   0.000000
  100        9.845314   0.000000
  101       10.181497   0.000000
  102       10.181682   0.000000
  103       10.181893   0.000000
  104       10.182034   0.000000
  105       10.949359   0.000000
  106       10.950430   0.000000
  107       10.964506   0.000000
  108       10.965319   0.000000
  109       11.123240   0.000000
  110       11.126502   0.000000
  111       11.131916   0.000000
  112       11.135689   0.000000
  113       11.735873   0.000000
  114       11.741014   0.000000
  115       11.743561   0.000000
  116       11.746512   0.000000
  117       11.811447   0.000000
  118       11.813888   0.000000
  119       11.815342   0.000000
  120       11.815833   0.000000
  121       12.148756   0.000000
  122       12.149783   0.000000
  123       12.152207   0.000000
  124       12.153001   0.000000
  125       12.414733   0.000000
  126       12.415271   0.000000
  127       12.416612   0.000000
  128       12.417200   0.000000
  129       13.003954   0.000000
  130       13.006463   0.000000
  131       13.011145   0.000000
  132       13.013589   0.000000
  133       13.649135   0.000000
  134       13.650879   0.000000
  135       13.652466   0.000000
  136       13.653904   0.000000
  137       14.284732   0.000000
  138       14.285055   0.000000
  139       14.286713   0.000000
  140       14.286865   0.000000
  141       14.865332   0.000000
  142       14.867795   0.000000
  143       14.880479   0.000000
  144       14.887393   0.000000
 
  0.5000000E+00  0.5000000E+00  0.0000000E+00  0.4901961E-02
    1      -15.533196   1.000000
    2      -15.533196   1.000000
    3      -15.528135   1.000000
    4      -15.528135   1.000000
    5      -10.887436   1.000000
    6      -10.887436   1.000000
    7      -10.883078   1.000000
    8      -10.883078   1.000000
    9       -7.357207   1.000000
   10       -7.357207   1.000000
   11       -7.343001   1.000000
   12       -7.343001   1.000000
   13       -6.863329   1.000000
   14       -6.863329   1.000000
   15       -6.816213   1.000000
   16       -6.816213   1.000000
   17       -4.384696   1.000000
   18       -4.384696   1.000000
   19       -4.344984   1.000000
   20       -4.344984   1.000000
   21        0.173064   0.000000
   22        0.173064   0.000000
   23        0.235559   0.000000
   24        0.235559   0.000000
   25        1.190767   0.000000
   26        1.190767   0.000000
   27        1.207916   0.000000
   28        1.207916   0.000000
   29        2.800884   0.000000
   30        2.800884   0.000000
   31        2.816620   0.000000
   32        2.816620   0.000000
   33        3.828434   0.000000
   34        3.828434   0.000000
   35        3.829906   0.000000
   36        3.829906   0.000000
   37        4.794969   0.000000
   38        4.794969   0.000000
   39        4.804244   0.000000
   40        4.804244   0.000000
   41        5.744175   0.000000
   42        5.744178   0.000000
   43        5.746609   0.000000
   44        5.746613   0.000000
   45        6.095271   0.000000
   46        6.095277   0.000000
   47        6.104054   0.000000
   48        6.104059   0.000000
   49        6.375179   0.000000
   50        6.375192   0.000000
   51        6.381421   0.000000
   52        6.381435   0.000000
   53        6.547647   0.000000
   54        6.547665   0.000000
   55        6.549583   0.000000
   56        6.549601   0.000000
   57        6.563498   0.000000
   58        6.563516   0.000000
   59        6.564846   0.000000
   60        6.564860   0.000000
   61        6.658492   0.000000
   62        6.658503   0.000000
   63        6.659797   0.000000
   64        6.659813   0.000000
   65        7.194076   0.000000
   66        7.194089   0.000000
   67        7.196613   0.000000
   68        7.196622   0.000000
   69        7.247850   0.000000
   70        7.247860   0.000000
   71        7.252115   0.000000
   72        7.252129   0.000000
   73        7.619685   0.000000
   74        7.619710   0.000000
   75        7.623680   0.000000
   76        7.623708   0.000000
   77        7.735755   0.000000
   78        7.735772   0.000000
   79        7.736258   0.000000
   80        7.736280   0.000000
   81        8.227723   0.000000
   82        8.227732   0.000000
   83        8.228431   0.000000
   84        8.228440   0.000000
   85        8.664853   0.000000
   86        8.664870   0.000000
   87        8.672194   0.000000
   88        8.672211   0.000000
   89        8.934950   0.000000
   90        8.934966   0.000000
   91        8.944457   0.000000
   92        8.944473   0.000000
   93        9.328784   0.000000
   94        9.328820   0.000000
   95        9.330107   0.000000
   96        9.330122   0.000000
   97        9.842242   0.000000
   98        9.842259   0.000000
   99        9.843143   0.000000
  100        9.843156   0.000000
  101       10.178046   0.000000
  102       10.178050   0.000000
  103       10.178069   0.000000
  104       10.178091   0.000000
  105       10.953160   0.000000
  106       10.953168   0.000000
  107       10.968667   0.000000
  108       10.968677   0.000000
  109       11.125238   0.000000
  110       11.125246   0.000000
  111       11.134520   0.000000
  112       11.134527   0.000000
  113       11.747233   0.000000
  114       11.747251   0.000000
  115       11.755865   0.000000
  116       11.755884   0.000000
  117       11.801816   0.000000
  118       11.801821   0.000000
  119       11.802390   0.000000
  120       11.802395   0.000000
  121       12.154950   0.000000
  122       12.154952   0.000000
  123       12.158068   0.000000
  124       12.158071   0.000000
  125       12.405106   0.000000
  126       12.405115   0.000000
  127       12.405811   0.000000
  128       12.405822   0.000000
  129       13.016281   0.000000
  130       13.016287   0.000000
  131       13.023449   0.000000
  132       13.023455   0.000000
  133       13.641405   0.000000
  134       13.641419   0.000000
  135       13.644448   0.000000
  136       13.644464   0.000000
  137       14.286118   0.000000
  138       14.286347   0.000000
  139       14.288199   0.000000
  140       14.288666   0.000000
  141       14.870608   0.000000
  142       14.878770   0.000000
  143       14.892290   0.000000
  144       14.941126   0.000000
 
  0.5000000E+00  0.5000000E+00  0.0000000E+00  0.4901961E-02
    1      -15.533196   1.000000
    2      -15.533196   1.000000
    3      -15.528135   1.000000
    4      -15.528135   1.000000
    5      -10.887436   1.000000
    6      -10.887436   1.000000
    7      -10.883078   1.000000
    8      -10.883078   1.000000
    9       -7.357207   1.000000
   10       -7.357207   1.000000
   11       -7.343001   1.000000
   12       -7.343001   1.000000
   13       -6.863329   1.000000
   14       -6.863329   1.000000
   15       -6.816213   1.000000
   16       -6.816213   1.000000
   17       -4.384696   1.000000
   18       -4.384696   1.000000
   19       -4.344984   1.000000
   20       -4.344984   1.000000
   21        0.173064   0.000000
   22        0.173064   0.000000
   23        0.235559   0.000000
   24        0.235559   0.000000
   25        1.190767   0.000000
   26        1.190767   0.000000
   27        1.207916   0.000000
   28        1.207916   0.000000
   29        2.800884   0.000000
   30        2.800884   0.000000
   31        2.816620   0.000000
   32        2.816620   0.000000
   33        3.828434   0.000000
   34        3.828434   0.000000
   35        3.829906   0.000000
   36        3.829906   0.000000
   37        4.794969   0.000000
   38        4.794969   0.000000
   39        4.804244   0.000000
   40        4.804244   0.000000
   41        5.744175   0.000000
   42        5.744178   0.000000
   43        5.746609   0.000000
   44        5.746613   0.000000
   45        6.095271   0.000000
   46        6.095277   0.000000
   47        6.104054   0.000000
   48        6.104059   0.000000
   49        6.375179   0.000000
   50        6.375192   0.000000
   51        6.381421   0.000000
   52        6.381435   0.000000
   53        6.547647   0.000000
   54        6.547665   0.000000
   55        6.549583   0.000000
   56        6.549601   0.000000
   57        6.563498   0.000000
   58        6.563516   0.000000
   59        6.564846   0.000000
   60        6.564860   0.000000
   61        6.658492   0.000000
   62        6.658503   0.000000
   63        6.659797   0.000000
   64        6.659813   0.000000
   65        7.194076   0.000000
   66        7.194089   0.000000
   67        7.196613   0.000000
   68        7.196622   0.000000
   69        7.247850   0.000000
   70        7.247860   0.000000
   71        7.252115   0.000000
   72        7.252129   0.000000
   73        7.619685   0.000000
   74        7.619710   0.000000
   75        7.623680   0.000000
   76        7.623708   0.000000
   77        7.735755   0.000000
   78        7.735772   0.000000
   79        7.736258   0.000000
   80        7.736280   0.000000
   81        8.227723   0.000000
   82        8.227732   0.000000
   83        8.228431   0.000000
   84        8.228440   0.000000
   85        8.664853   0.000000
   86        8.664870   0.000000
   87        8.672194   0.000000
   88        8.672211   0.000000
   89        8.934950   0.000000
   90        8.934966   0.000000
   91        8.944457   0.000000
   92        8.944473   0.000000
   93        9.328784   0.000000
   94        9.328820   0.000000
   95        9.330107   0.000000
   96        9.330122   0.000000
   97        9.842242   0.000000
   98        9.842259   0.000000
   99        9.843143   0.000000
  100        9.843156   0.000000
  101       10.178046   0.000000
  102       10.178050   0.000000
  103       10.178069   0.000000
  104       10.178091   0.000000
  105       10.953160   0.000000
  106       10.953168   0.000000
  107       10.968667   0.000000
  108       10.968677   0.000000
  109       11.125238   0.000000
  110       11.125246   0.000000
  111       11.134520   0.000000
  112       11.134527   0.000000
  113       11.747233   0.000000
  114       11.747251   0.000000
  115       11.755865   0.000000
  116       11.755884   0.000000
  117       11.801816   0.000000
  118       11.801821   0.000000
  119       11.802390   0.000000
  120       11.802395   0.000000
  121       12.154950   0.000000
  122       12.154952   0.000000
  123       12.158068   0.000000
  124       12.158071   0.000000
  125       12.405106   0.000000
  126       12.405115   0.000000
  127       12.405811   0.000000
  128       12.405822   0.000000
  129       13.016281   0.000000
  130       13.016287   0.000000
  131       13.023449   0.000000
  132       13.023456   0.000000
  133       13.641404   0.000000
  134       13.641417   0.000000
  135       13.644449   0.000000
  136       13.644464   0.000000
  137       14.286095   0.000000
  138       14.286111   0.000000
  139       14.288176   0.000000
  140       14.288342   0.000000
  141       14.871458   0.000000
  142       14.878299   0.000000
  143       14.881665   0.000000
  144       14.893972   0.000000
 
  0.4900000E+00  0.5000000E+00  0.0000000E+00  0.4901961E-02
    1      -15.534203   1.000000
    2      -15.534196   1.000000
    3      -15.529141   1.000000
    4      -15.529134   1.000000
    5      -10.886406   1.000000
    6      -10.886395   1.000000
    7      -10.882032   1.000000
    8      -10.882021   1.000000
    9       -7.362098   1.000000
   10       -7.362075   1.000000
   11       -7.348312   1.000000
   12       -7.348288   1.000000
   13       -6.855608   1.000000
   14       -6.855588   1.000000
   15       -6.809003   1.000000
   16       -6.808986   1.000000
   17       -4.385008   1.000000
   18       -4.385004   1.000000
   19       -4.345273   1.000000
   20       -4.345269   1.000000
   21        0.173413   0.000000
   22        0.173420   0.000000
   23        0.236046   0.000000
   24        0.236053   0.000000
   25        1.188649   0.000000
   26        1.188672   0.000000
   27        1.206374   0.000000
   28        1.206396   0.000000
   29        2.801342   0.000000
   30        2.801364   0.000000
   31        2.818047   0.000000
   32        2.818070   0.000000
   33        3.825043   0.000000
   34        3.825081   0.000000
   35        3.827290   0.000000
   36        3.827328   0.000000
   37        4.795383   0.000000
   38        4.795399   0.000000
   39        4.805079   0.000000
   40        4.805094   0.000000
   41        5.724326   0.000000
   42        5.724412   0.000000
   43        5.728763   0.000000
   44        5.728852   0.000000
   45        6.102527   0.000000
   46        6.102536   0.000000
   47        6.110855   0.000000
   48        6.110859   0.000000
   49        6.356498   0.000000
   50        6.356525   0.000000
   51        6.363235   0.000000
   52        6.363287   0.000000
   53        6.481483   0.000000
   54        6.481557   0.000000
   55        6.482042   0.000000
   56        6.482097   0.000000
   57        6.604702   0.000000
   58        6.604734   0.000000
   59        6.608794   0.000000
   60        6.608809   0.000000
   61        6.716486   0.000000
   62        6.716527   0.000000
   63        6.717561   0.000000
   64        6.717602   0.000000
   65        7.139030   0.000000
   66        7.139113   0.000000
   67        7.142371   0.000000
   68        7.142441   0.000000
   69        7.302007   0.000000
   70        7.302209   0.000000
   71        7.305393   0.000000
   72        7.305572   0.000000
   73        7.571339   0.000000
   74        7.571605   0.000000
   75        7.576311   0.000000
   76        7.576575   0.000000
   77        7.786870   0.000000
   78        7.786928   0.000000
   79        7.789843   0.000000
   80        7.789902   0.000000
   81        8.223897   0.000000
   82        8.223961   0.000000
   83        8.224499   0.000000
   84        8.224578   0.000000
   85        8.666587   0.000000
   86        8.666651   0.000000
   87        8.673263   0.000000
   88        8.673339   0.000000
   89        8.932420   0.000000
   90        8.932539   0.000000
   91        8.941506   0.000000
   92        8.941661   0.000000
   93        9.329229   0.000000
   94        9.329580   0.000000
   95        9.330813   0.000000
   96        9.331144   0.000000
   97        9.845984   0.000000
   98        9.846009   0.000000
   99        9.847663   0.000000
  100        9.847705   0.000000
  101       10.185574   0.000000
  102       10.185583   0.000000
  103       10.185831   0.000000
  104       10.185842   0.000000
  105       10.943410   0.000000
  106       10.943417   0.000000
  107       10.960080   0.000000
  108       10.960099   0.000000
  109       11.099763   0.000000
  110       11.099783   0.000000
  111       11.111954   0.000000
  112       11.111961   0.000000
  113       11.718826   0.000000
  114       11.718909   0.000000
  115       11.727904   0.000000
  116       11.727957   0.000000
  117       11.810599   0.000000
  118       11.810615   0.000000
  119       11.811830   0.000000
  120       11.811852   0.000000
  121       12.200639   0.000000
  122       12.200735   0.000000
  123       12.209992   0.000000
  124       12.210086   0.000000
  125       12.415822   0.000000
  126       12.415830   0.000000
  127       12.416529   0.000000
  128       12.416543   0.000000
  129       13.008970   0.000000
  130       13.008989   0.000000
  131       13.016255   0.000000
  132       13.016270   0.000000
  133       13.651207   0.000000
  134       13.651212   0.000000
  135       13.654485   0.000000
  136       13.654509   0.000000
  137       14.278200   0.000000
  138       14.278397   0.000000
  139       14.281112   0.000000
  140       14.281375   0.000000
  141       14.865194   0.000000
  142       14.872420   0.000000
  143       14.876587   0.000000
  144       14.885941   0.000000
 
  0.4800000E+00  0.5000000E+00  0.0000000E+00  0.4901961E-02
    1      -15.537208   1.000000
    2      -15.537195   1.000000
    3      -15.532145   1.000000
    4      -15.532132   1.000000
    5      -10.883321   1.000000
    6      -10.883299   1.000000
    7      -10.878904   1.000000
    8      -10.878882   1.000000
    9       -7.375904   1.000000
   10       -7.375860   1.000000
   11       -7.363153   1.000000
   12       -7.363107   1.000000
   13       -6.833495   1.000000
   14       -6.833459   1.000000
   15       -6.788197   1.000000
   16       -6.788164   1.000000
   17       -4.385927   1.000000
   18       -4.385919   1.000000
   19       -4.346123   1.000000
   20       -4.346114   1.000000
   21        0.174438   0.000000
   22        0.174452   0.000000
   23        0.237483   0.000000
   24        0.237498   0.000000
   25        1.182444   0.000000
   26        1.182486   0.000000
   27        1.201784   0.000000
   28        1.201825   0.000000
   29        2.802824   0.000000
   30        2.802862   0.000000
   31        2.822099   0.000000
   32        2.822139   0.000000
   33        3.815474   0.000000
   34        3.815519   0.000000
   35        3.819114   0.000000
   36        3.819158   0.000000
   37        4.796582   0.000000
   38        4.796614   0.000000
   39        4.807398   0.000000
   40        4.807427   0.000000
   41        5.675041   0.000000
   42        5.675115   0.000000
   43        5.681734   0.000000
   44        5.681809   0.000000
   45        6.108861   0.000000
   46        6.108883   0.000000
   47        6.114995   0.000000
   48        6.115004   0.000000
   49        6.309398   0.000000
   50        6.309425   0.000000
   51        6.314373   0.000000
   52        6.314426   0.000000
   53        6.421240   0.000000
   54        6.421317   0.000000
   55        6.423877   0.000000
   56        6.423944   0.000000
   57        6.664339   0.000000
   58        6.664374   0.000000
   59        6.668579   0.000000
   60        6.668601   0.000000
   61        6.815988   0.000000
   62        6.816044   0.000000
   63        6.817032   0.000000
   64        6.817082   0.000000
   65        7.066659   0.000000
   66        7.066774   0.000000
   67        7.070979   0.000000
   68        7.071078   0.000000
   69        7.362441   0.000000
   70        7.362882   0.000000
   71        7.366230   0.000000
   72        7.366649   0.000000
   73        7.507511   0.000000
   74        7.507906   0.000000
   75        7.513390   0.000000
   76        7.513774   0.000000
   77        7.873474   0.000000
   78        7.873547   0.000000
   79        7.876534   0.000000
   80        7.876607   0.000000
   81        8.213174   0.000000
   82        8.213303   0.000000
   83        8.213761   0.000000
   84        8.213898   0.000000
   85        8.670312   0.000000
   86        8.670433   0.000000
   87        8.675127   0.000000
   88        8.675257   0.000000
   89        8.926675   0.000000
   90        8.926919   0.000000
   91        8.934645   0.000000
   92        8.934932   0.000000
   93        9.331014   0.000000
   94        9.331436   0.000000
   95        9.333137   0.000000
   96        9.333547   0.000000
   97        9.857447   0.000000
   98        9.857492   0.000000
   99        9.860404   0.000000
  100        9.860463   0.000000
  101       10.207405   0.000000
  102       10.207435   0.000000
  103       10.207963   0.000000
  104       10.207997   0.000000
  105       10.910099   0.000000
  106       10.910121   0.000000
  107       10.929361   0.000000
  108       10.929389   0.000000
  109       11.038519   0.000000
  110       11.038556   0.000000
  111       11.054861   0.000000
  112       11.054881   0.000000
  113       11.657422   0.000000
  114       11.657518   0.000000
  115       11.665520   0.000000
  116       11.665593   0.000000
  117       11.840714   0.000000
  118       11.840720   0.000000
  119       11.843922   0.000000
  120       11.843932   0.000000
  121       12.307635   0.000000
  122       12.307726   0.000000
  123       12.319928   0.000000
  124       12.320015   0.000000
  125       12.449122   0.000000
  126       12.449152   0.000000
  127       12.451074   0.000000
  128       12.451101   0.000000
  129       12.991239   0.000000
  130       12.991270   0.000000
  131       12.999006   0.000000
  132       12.999036   0.000000
  133       13.677919   0.000000
  134       13.677928   0.000000
  135       13.681852   0.000000
  136       13.681883   0.000000
  137       14.256915   0.000000
  138       14.257076   0.000000
  139       14.261395   0.000000
  140       14.261844   0.000000
  141       14.850934   0.000000
  142       14.856812   0.000000
  143       14.859812   0.000000
  144       14.924313   0.000000
 
  0.4700000E+00  0.5000000E+00  0.0000000E+00  0.4901961E-02
    1      -15.542189   1.000000
    2      -15.542169   1.000000
    3      -15.537124   1.000000
    4      -15.537104   1.000000
    5      -10.878240   1.000000
    6      -10.878208   1.000000
    7      -10.873751   1.000000
    8      -10.873719   1.000000
    9       -7.396545   1.000000
   10       -7.396485   1.000000
   11       -7.384984   1.000000
   12       -7.384922   1.000000
   13       -6.799540   1.000000
   14       -6.799493   1.000000
   15       -6.755864   1.000000
   16       -6.755820   1.000000
   17       -4.387408   1.000000
   18       -4.387396   1.000000
   19       -4.347489   1.000000
   20       -4.347476   1.000000
   21        0.176053   0.000000
   22        0.176075   0.000000
   23        0.239788   0.000000
   24        0.239809   0.000000
   25        1.172467   0.000000
   26        1.172524   0.000000
   27        1.194211   0.000000
   28        1.194265   0.000000
   29        2.805392   0.000000
   30        2.805440   0.000000
   31        2.828191   0.000000
   32        2.828242   0.000000
   33        3.800258   0.000000
   34        3.800305   0.000000
   35        3.805316   0.000000
   36        3.805362   0.000000
   37        4.798343   0.000000
   38        4.798390   0.000000
   39        4.810675   0.000000
   40        4.810718   0.000000
   41        5.610447   0.000000
   42        5.610502   0.000000
   43        5.618600   0.000000
   44        5.618652   0.000000
   45        6.089844   0.000000
   46        6.089873   0.000000
   47        6.092253   0.000000
   48        6.092267   0.000000
   49        6.231274   0.000000
   50        6.231293   0.000000
   51        6.233729   0.000000
   52        6.233765   0.000000
   53        6.420957   0.000000
   54        6.421002   0.000000
   55        6.426230   0.000000
   56        6.426269   0.000000
   57        6.734252   0.000000
   58        6.734270   0.000000
   59        6.738177   0.000000
   60        6.738193   0.000000
   61        6.913111   0.000000
   62        6.913225   0.000000
   63        6.914250   0.000000
   64        6.914346   0.000000
   65        7.006979   0.000000
   66        7.007167   0.000000
   67        7.012523   0.000000
   68        7.012694   0.000000
   69        7.355757   0.000000
   70        7.356125   0.000000
   71        7.358036   0.000000
   72        7.358376   0.000000
   73        7.515457   0.000000
   74        7.515666   0.000000
   75        7.518955   0.000000
   76        7.519172   0.000000
   77        7.962780   0.000000
   78        7.962856   0.000000
   79        7.965489   0.000000
   80        7.965546   0.000000
   81        8.198624   0.000000
   82        8.198800   0.000000
   83        8.199553   0.000000
   84        8.199744   0.000000
   85        8.671536   0.000000
   86        8.671704   0.000000
   87        8.673741   0.000000
   88        8.673917   0.000000
   89        8.922734   0.000000
   90        8.923078   0.000000
   91        8.929235   0.000000
   92        8.929630   0.000000
   93        9.333996   0.000000
   94        9.334372   0.000000
   95        9.336551   0.000000
   96        9.336921   0.000000
   97        9.875862   0.000000
   98        9.875929   0.000000
   99        9.880090   0.000000
  100        9.880170   0.000000
  101       10.240785   0.000000
  102       10.240848   0.000000
  103       10.241790   0.000000
  104       10.241848   0.000000
  105       10.839952   0.000000
  106       10.840008   0.000000
  107       10.858184   0.000000
  108       10.858232   0.000000
  109       10.981251   0.000000
  110       10.981323   0.000000
  111       10.994394   0.000000
  112       10.994447   0.000000
  113       11.591599   0.000000
  114       11.591690   0.000000
  115       11.598598   0.000000
  116       11.598674   0.000000
  117       11.887921   0.000000
  118       11.887932   0.000000
  119       11.892659   0.000000
  120       11.892663   0.000000
  121       12.411996   0.000000
  122       12.412058   0.000000
  123       12.420502   0.000000
  124       12.420559   0.000000
  125       12.518942   0.000000
  126       12.518990   0.000000
  127       12.526467   0.000000
  128       12.526527   0.000000
  129       12.975802   0.000000
  130       12.975849   0.000000
  131       12.984863   0.000000
  132       12.984910   0.000000
  133       13.714949   0.000000
  134       13.714965   0.000000
  135       13.719891   0.000000
  136       13.719917   0.000000
  137       14.226198   0.000000
  138       14.226631   0.000000
  139       14.233046   0.000000
  140       14.233374   0.000000
  141       14.828719   0.000000
  142       14.831158   0.000000
  143       14.838304   0.000000
  144       14.844582   0.000000
 
  0.4600000E+00  0.5000000E+00  0.0000000E+00  0.4901961E-02
    1      -15.549106   1.000000
    2      -15.549080   1.000000
    3      -15.544039   1.000000
    4      -15.544012   1.000000
    5      -10.871255   1.000000
    6      -10.871214   1.000000
    7      -10.866672   1.000000
    8      -10.866631   1.000000
    9       -7.421563   1.000000
   10       -7.421490   1.000000
   11       -7.411001   1.000000
   12       -7.410927   1.000000
   13       -6.756582   1.000000
   14       -6.756527   1.000000
   15       -6.714453   1.000000
   16       -6.714401   1.000000
   17       -4.389381   1.000000
   18       -4.389365   1.000000
   19       -4.349301   1.000000
   20       -4.349284   1.000000
   21        0.178115   0.000000
   22        0.178144   0.000000
   23        0.242818   0.000000
   24        0.242847   0.000000
   25        1.159153   0.000000
   26        1.159221   0.000000
   27        1.183837   0.000000
   28        1.183902   0.000000
   29        2.808887   0.000000
   30        2.808942   0.000000
   31        2.835644   0.000000
   32        2.835702   0.000000
   33        3.779845   0.000000
   34        3.779892   0.000000
   35        3.786216   0.000000
   36        3.786261   0.000000
   37        4.800163   0.000000
   38        4.800226   0.000000
   39        4.814136   0.000000
   40        4.814193   0.000000
   41        5.539357   0.000000
   42        5.539393   0.000000
   43        5.548507   0.000000
   44        5.548539   0.000000
   45        6.044011   0.000000
   46        6.044050   0.000000
   47        6.045258   0.000000
   48        6.045314   0.000000
   49        6.138401   0.000000
   50        6.138416   0.000000
   51        6.139929   0.000000
   52        6.139958   0.000000
   53        6.463112   0.000000
   54        6.463127   0.000000
   55        6.469721   0.000000
   56        6.469751   0.000000
   57        6.802909   0.000000
   58        6.802956   0.000000
   59        6.807874   0.000000
   60        6.807936   0.000000
   61        6.916396   0.000000
   62        6.916518   0.000000
   63        6.919074   0.000000
   64        6.919206   0.000000
   65        7.054086   0.000000
   66        7.054243   0.000000
   67        7.056432   0.000000
   68        7.056575   0.000000
   69        7.292982   0.000000
   70        7.293215   0.000000
   71        7.295384   0.000000
   72        7.295634   0.000000
   73        7.585207   0.000000
   74        7.585253   0.000000
   75        7.586850   0.000000
   76        7.586901   0.000000
   77        8.040613   0.000000
   78        8.040686   0.000000
   79        8.044698   0.000000
   80        8.044741   0.000000
   81        8.189728   0.000000
   82        8.190044   0.000000
   83        8.192800   0.000000
   84        8.193132   0.000000
   85        8.663519   0.000000
   86        8.663592   0.000000
   87        8.664603   0.000000
   88        8.664692   0.000000
   89        8.927317   0.000000
   90        8.927707   0.000000
   91        8.932592   0.000000
   92        8.933034   0.000000
   93        9.337801   0.000000
   94        9.338110   0.000000
   95        9.340555   0.000000
   96        9.340866   0.000000
   97        9.899366   0.000000
   98        9.899457   0.000000
   99        9.904766   0.000000
  100        9.904870   0.000000
  101       10.280891   0.000000
  102       10.280975   0.000000
  103       10.282881   0.000000
  104       10.282949   0.000000
  105       10.734220   0.000000
  106       10.734315   0.000000
  107       10.750545   0.000000
  108       10.750638   0.000000
  109       10.945200   0.000000
  110       10.945311   0.000000
  111       10.951957   0.000000
  112       10.952049   0.000000
  113       11.529964   0.000000
  114       11.530046   0.000000
  115       11.536333   0.000000
  116       11.536408   0.000000
  117       11.946725   0.000000
  118       11.946747   0.000000
  119       11.952443   0.000000
  120       11.952456   0.000000
  121       12.470154   0.000000
  122       12.470200   0.000000
  123       12.475195   0.000000
  124       12.475249   0.000000
  125       12.627152   0.000000
  126       12.627194   0.000000
  127       12.637449   0.000000
  128       12.637500   0.000000
  129       12.987183   0.000000
  130       12.987256   0.000000
  131       12.998975   0.000000
  132       12.999048   0.000000
  133       13.754220   0.000000
  134       13.754258   0.000000
  135       13.760510   0.000000
  136       13.760541   0.000000
  137       14.192653   0.000000
  138       14.192975   0.000000
  139       14.202223   0.000000
  140       14.202504   0.000000
  141       14.806669   0.000000
  142       14.808204   0.000000
  143       14.817685   0.000000
  144       14.820186   0.000000
 
  0.4500000E+00  0.5000000E+00  0.0000000E+00  0.4901961E-02
    1      -15.557902   1.000000
    2      -15.557869   1.000000
    3      -15.552833   1.000000
    4      -15.552800   1.000000
    5      -10.862494   1.000000
    6      -10.862444   1.000000
    7      -10.857798   1.000000
    8      -10.857748   1.000000
    9       -7.448721   1.000000
   10       -7.448639   1.000000
   11       -7.438840   1.000000
   12       -7.438757   1.000000
   13       -6.707020   1.000000
   14       -6.706960   1.000000
   15       -6.666165   1.000000
   16       -6.666108   1.000000
   17       -4.391742   1.000000
   18       -4.391721   1.000000
   19       -4.351456   1.000000
   20       -4.351434   1.000000
   21        0.180433   0.000000
   22        0.180469   0.000000
   23        0.246383   0.000000
   24        0.246419   0.000000
   25        1.142999   0.000000
   26        1.143074   0.000000
   27        1.170974   0.000000
   28        1.171047   0.000000
   29        2.812911   0.000000
   30        2.812970   0.000000
   31        2.843737   0.000000
   32        2.843801   0.000000
   33        3.754757   0.000000
   34        3.754804   0.000000
   35        3.762302   0.000000
   36        3.762346   0.000000
   37        4.801244   0.000000
   38        4.801321   0.000000
   39        4.816790   0.000000
   40        4.816862   0.000000
   41        5.466547   0.000000
   42        5.466566   0.000000
   43        5.476469   0.000000
   44        5.476486   0.000000
   45        5.984114   0.000000
   46        5.984141   0.000000
   47        5.987187   0.000000
   48        5.987232   0.000000
   49        6.042808   0.000000
   50        6.042822   0.000000
   51        6.043861   0.000000
   52        6.043887   0.000000
   53        6.516491   0.000000
   54        6.516551   0.000000
   55        6.523877   0.000000
   56        6.523951   0.000000
   57        6.825372   0.000000
   58        6.825464   0.000000
   59        6.834394   0.000000
   60        6.834513   0.000000
   61        6.915666   0.000000
   62        6.915817   0.000000
   63        6.917433   0.000000
   64        6.917598   0.000000
   65        7.143843   0.000000
   66        7.143916   0.000000
   67        7.145439   0.000000
   68        7.145521   0.000000
   69        7.245713   0.000000
   70        7.245859   0.000000
   71        7.247119   0.000000
   72        7.247295   0.000000
   73        7.664732   0.000000
   74        7.664825   0.000000
   75        7.666000   0.000000
   76        7.666092   0.000000
   77        8.076561   0.000000
   78        8.076630   0.000000
   79        8.085148   0.000000
   80        8.085181   0.000000
   81        8.216424   0.000000
   82        8.216802   0.000000
   83        8.223762   0.000000
   84        8.224150   0.000000
   85        8.642526   0.000000
   86        8.642570   0.000000
   87        8.645058   0.000000
   88        8.645110   0.000000
   89        8.945120   0.000000
   90        8.945493   0.000000
   91        8.949635   0.000000
   92        8.950055   0.000000
   93        9.341888   0.000000
   94        9.342173   0.000000
   95        9.344672   0.000000
   96        9.344964   0.000000
   97        9.925118   0.000000
   98        9.925235   0.000000
   99        9.931605   0.000000
  100        9.931733   0.000000
  101       10.318278   0.000000
  102       10.318356   0.000000
  103       10.323085   0.000000
  104       10.323141   0.000000
  105       10.621797   0.000000
  106       10.621897   0.000000
  107       10.636533   0.000000
  108       10.636627   0.000000
  109       10.920288   0.000000
  110       10.920440   0.000000
  111       10.923874   0.000000
  112       10.924007   0.000000
  113       11.474836   0.000000
  114       11.474906   0.000000
  115       11.480911   0.000000
  116       11.480979   0.000000
  117       12.012658   0.000000
  118       12.012688   0.000000
  119       12.019009   0.000000
  120       12.019031   0.000000
  121       12.496133   0.000000
  122       12.496181   0.000000
  123       12.500449   0.000000
  124       12.500508   0.000000
  125       12.718226   0.000000
  126       12.718263   0.000000
  127       12.727112   0.000000
  128       12.727141   0.000000
  129       13.058144   0.000000
  130       13.058236   0.000000
  131       13.073181   0.000000
  132       13.073280   0.000000
  133       13.787384   0.000000
  134       13.787474   0.000000
  135       13.795359   0.000000
  136       13.795424   0.000000
  137       14.163334   0.000000
  138       14.163628   0.000000
  139       14.175746   0.000000
  140       14.176048   0.000000
  141       14.790513   0.000000
  142       14.793833   0.000000
  143       14.799923   0.000000
  144       14.805716   0.000000
 
  0.4400000E+00  0.5000000E+00  0.0000000E+00  0.4901961E-02
    1      -15.568509   1.000000
    2      -15.568471   1.000000
    3      -15.563439   1.000000
    4      -15.563401   1.000000
    5      -10.852119   1.000000
    6      -10.852062   1.000000
    7      -10.847295   1.000000
    8      -10.847238   1.000000
    9       -7.476234   1.000000
   10       -7.476146   1.000000
   11       -7.466739   1.000000
   12       -7.466650   1.000000
   13       -6.652679   1.000000
   14       -6.652618   1.000000
   15       -6.612771   1.000000
   16       -6.612712   1.000000
   17       -4.394361   1.000000
   18       -4.394335   1.000000
   19       -4.353824   1.000000
   20       -4.353798   1.000000
   21        0.182760   0.000000
   22        0.182804   0.000000
   23        0.250234   0.000000
   24        0.250277   0.000000
   25        1.124538   0.000000
   26        1.124620   0.000000
   27        1.156037   0.000000
   28        1.156116   0.000000
   29        2.816868   0.000000
   30        2.816931   0.000000
   31        2.851687   0.000000
   32        2.851755   0.000000
   33        3.725576   0.000000
   34        3.725622   0.000000
   35        3.734165   0.000000
   36        3.734209   0.000000
   37        4.800442   0.000000
   38        4.800536   0.000000
   39        4.817362   0.000000
   40        4.817449   0.000000
   41        5.394867   0.000000
   42        5.394875   0.000000
   43        5.405437   0.000000
   44        5.405454   0.000000
   45        5.919803   0.000000
   46        5.919838   0.000000
   47        5.924250   0.000000
   48        5.924292   0.000000
   49        5.948184   0.000000
   50        5.948204   0.000000
   51        5.948610   0.000000
   52        5.948629   0.000000
   53        6.555677   0.000000
   54        6.555796   0.000000
   55        6.562847   0.000000
   56        6.562984   0.000000
   57        6.797646   0.000000
   58        6.797802   0.000000
   59        6.806620   0.000000
   60        6.806798   0.000000
   61        6.974300   0.000000
   62        6.974468   0.000000
   63        6.977828   0.000000
   64        6.977999   0.000000
   65        7.140632   0.000000
   66        7.140897   0.000000
   67        7.145998   0.000000
   68        7.146287   0.000000
   69        7.310828   0.000000
   70        7.310946   0.000000
   71        7.312233   0.000000
   72        7.312343   0.000000
   73        7.741653   0.000000
   74        7.741770   0.000000
   75        7.743162   0.000000
   76        7.743272   0.000000
   77        8.072483   0.000000
   78        8.072603   0.000000
   79        8.082089   0.000000
   80        8.082187   0.000000
   81        8.284286   0.000000
   82        8.284632   0.000000
   83        8.292443   0.000000
   84        8.292813   0.000000
   85        8.613560   0.000000
   86        8.613582   0.000000
   87        8.616416   0.000000
   88        8.616451   0.000000
   89        8.975839   0.000000
   90        8.976181   0.000000
   91        8.979753   0.000000
   92        8.980133   0.000000
   93        9.345700   0.000000
   94        9.346008   0.000000
   95        9.348443   0.000000
   96        9.348758   0.000000
   97        9.949272   0.000000
   98        9.949414   0.000000
   99        9.956937   0.000000
  100        9.957091   0.000000
  101       10.327741   0.000000
  102       10.327822   0.000000
  103       10.340607   0.000000
  104       10.340663   0.000000
  105       10.541482   0.000000
  106       10.541630   0.000000
  107       10.550173   0.000000
  108       10.550294   0.000000
  109       10.904500   0.000000
  110       10.904621   0.000000
  111       10.907359   0.000000
  112       10.907462   0.000000
  113       11.428191   0.000000
  114       11.428246   0.000000
  115       11.434105   0.000000
  116       11.434160   0.000000
  117       12.081020   0.000000
  118       12.081057   0.000000
  119       12.087799   0.000000
  120       12.087829   0.000000
  121       12.494106   0.000000
  122       12.494159   0.000000
  123       12.497998   0.000000
  124       12.498065   0.000000
  125       12.784124   0.000000
  126       12.784167   0.000000
  127       12.791691   0.000000
  128       12.791715   0.000000
  129       13.186814   0.000000
  130       13.186908   0.000000
  131       13.203031   0.000000
  132       13.203126   0.000000
  133       13.807067   0.000000
  134       13.807194   0.000000
  135       13.816808   0.000000
  136       13.816918   0.000000
  137       14.146155   0.000000
  138       14.146590   0.000000
  139       14.161844   0.000000
  140       14.162065   0.000000
  141       14.784764   0.000000
  142       14.788163   0.000000
  143       14.793508   0.000000
  144       14.802941   0.000000
 
  0.4300000E+00  0.5000000E+00  0.0000000E+00  0.4901961E-02
    1      -15.580847   1.000000
    2      -15.580803   1.000000
    3      -15.575779   1.000000
    4      -15.575735   1.000000
    5      -10.840324   1.000000
    6      -10.840261   1.000000
    7      -10.835363   1.000000
    8      -10.835300   1.000000
    9       -7.502736   1.000000
   10       -7.502643   1.000000
   11       -7.493410   1.000000
   12       -7.493316   1.000000
   13       -6.594909   1.000000
   14       -6.594847   1.000000
   15       -6.555635   1.000000
   16       -6.555575   1.000000
   17       -4.397077   1.000000
   18       -4.397047   1.000000
   19       -4.356247   1.000000
   20       -4.356217   1.000000
   21        0.184811   0.000000
   22        0.184862   0.000000
   23        0.254075   0.000000
   24        0.254125   0.000000
   25        1.104331   0.000000
   26        1.104418   0.000000
   27        1.139514   0.000000
   28        1.139597   0.000000
   29        2.820015   0.000000
   30        2.820081   0.000000
   31        2.858645   0.000000
   32        2.858716   0.000000
   33        3.692953   0.000000
   34        3.692999   0.000000
   35        3.702488   0.000000
   36        3.702532   0.000000
   37        4.796281   0.000000
   38        4.796392   0.000000
   39        4.814261   0.000000
   40        4.814365   0.000000
   41        5.326366   0.000000
   42        5.326382   0.000000
   43        5.337480   0.000000
   44        5.337509   0.000000
   45        5.848647   0.000000
   46        5.848703   0.000000
   47        5.852186   0.000000
   48        5.852239   0.000000
   49        5.861375   0.000000
   50        5.861398   0.000000
   51        5.864304   0.000000
   52        5.864333   0.000000
   53        6.557454   0.000000
   54        6.557623   0.000000
   55        6.562277   0.000000
   56        6.562465   0.000000
   57        6.786023   0.000000
   58        6.786215   0.000000
   59        6.792782   0.000000
   60        6.792993   0.000000
   61        7.016777   0.000000
   62        7.016881   0.000000
   63        7.023008   0.000000
   64        7.023120   0.000000
   65        7.140322   0.000000
   66        7.140556   0.000000
   67        7.146517   0.000000
   68        7.146769   0.000000
   69        7.425841   0.000000
   70        7.425966   0.000000
   71        7.427383   0.000000
   72        7.427502   0.000000
   73        7.804338   0.000000
   74        7.804470   0.000000
   75        7.806561   0.000000
   76        7.806678   0.000000
   77        8.068578   0.000000
   78        8.068710   0.000000
   79        8.077696   0.000000
   80        8.077814   0.000000
   81        8.352422   0.000000
   82        8.352768   0.000000
   83        8.361110   0.000000
   84        8.361486   0.000000
   85        8.587527   0.000000
   86        8.587551   0.000000
   87        8.589614   0.000000
   88        8.589654   0.000000
   89        9.015395   0.000000
   90        9.015709   0.000000
   91        9.018729   0.000000
   92        9.019072   0.000000
   93        9.349295   0.000000
   94        9.349607   0.000000
   95        9.351873   0.000000
   96        9.352185   0.000000
   97        9.966777   0.000000
   98        9.966931   0.000000
   99        9.976239   0.000000
  100        9.976409   0.000000
  101       10.278762   0.000000
  102       10.278903   0.000000
  103       10.300402   0.000000
  104       10.300529   0.000000
  105       10.530613   0.000000
  106       10.530818   0.000000
  107       10.534325   0.000000
  108       10.534543   0.000000
  109       10.900189   0.000000
  110       10.900237   0.000000
  111       10.903139   0.000000
  112       10.903172   0.000000
  113       11.392855   0.000000
  114       11.392893   0.000000
  115       11.398592   0.000000
  116       11.398629   0.000000
  117       12.144587   0.000000
  118       12.144627   0.000000
  119       12.151645   0.000000
  120       12.151677   0.000000
  121       12.473909   0.000000
  122       12.473970   0.000000
  123       12.477405   0.000000
  124       12.477482   0.000000
  125       12.846118   0.000000
  126       12.846159   0.000000
  127       12.852908   0.000000
  128       12.852926   0.000000
  129       13.337643   0.000000
  130       13.337717   0.000000
  131       13.353114   0.000000
  132       13.353185   0.000000
  133       13.810381   0.000000
  134       13.810532   0.000000
  135       13.821406   0.000000
  136       13.821568   0.000000
  137       14.147953   0.000000
  138       14.148325   0.000000
  139       14.166433   0.000000
  140       14.166630   0.000000
  141       14.789626   0.000000
  142       14.791456   0.000000
  143       14.799489   0.000000
  144       14.806579   0.000000
 
  0.4200000E+00  0.5000000E+00  0.0000000E+00  0.4901961E-02
    1      -15.594824   1.000000
    2      -15.594774   1.000000
    3      -15.589759   1.000000
    4      -15.589709   1.000000
    5      -10.827328   1.000000
    6      -10.827260   1.000000
    7      -10.822225   1.000000
    8      -10.822156   1.000000
    9       -7.527190   1.000000
   10       -7.527092   1.000000
   11       -7.517893   1.000000
   12       -7.517796   1.000000
   13       -6.534726   1.000000
   14       -6.534666   1.000000
   15       -6.495815   1.000000
   16       -6.495755   1.000000
   17       -4.399699   1.000000
   18       -4.399664   1.000000
   19       -4.358538   1.000000
   20       -4.358502   1.000000
   21        0.186265   0.000000
   22        0.186323   0.000000
   23        0.257564   0.000000
   24        0.257621   0.000000
   25        1.082947   0.000000
   26        1.083037   0.000000
   27        1.121928   0.000000
   28        1.122014   0.000000
   29        2.821486   0.000000
   30        2.821555   0.000000
   31        2.863678   0.000000
   32        2.863753   0.000000
   33        3.657606   0.000000
   34        3.657653   0.000000
   35        3.668034   0.000000
   36        3.668079   0.000000
   37        4.786973   0.000000
   38        4.787100   0.000000
   39        4.805582   0.000000
   40        4.805703   0.000000
   41        5.262768   0.000000
   42        5.262794   0.000000
   43        5.274256   0.000000
   44        5.274296   0.000000
   45        5.759665   0.000000
   46        5.759692   0.000000
   47        5.761356   0.000000
   48        5.761388   0.000000
   49        5.797502   0.000000
   50        5.797543   0.000000
   51        5.802193   0.000000
   52        5.802228   0.000000
   53        6.523441   0.000000
   54        6.523607   0.000000
   55        6.526073   0.000000
   56        6.526256   0.000000
   57        6.772514   0.000000
   58        6.772643   0.000000
   59        6.776270   0.000000
   60        6.776427   0.000000
   61        7.043891   0.000000
   62        7.043908   0.000000
   63        7.049626   0.000000
   64        7.049638   0.000000
   65        7.199599   0.000000
   66        7.199723   0.000000
   67        7.203116   0.000000
   68        7.203254   0.000000
   69        7.547295   0.000000
   70        7.547448   0.000000
   71        7.548876   0.000000
   72        7.549026   0.000000
   73        7.835045   0.000000
   74        7.835213   0.000000
   75        7.839020   0.000000
   76        7.839166   0.000000
   77        8.093346   0.000000
   78        8.093451   0.000000
   79        8.100486   0.000000
   80        8.100580   0.000000
   81        8.388124   0.000000
   82        8.388473   0.000000
   83        8.397511   0.000000
   84        8.397887   0.000000
   85        8.586572   0.000000
   86        8.586676   0.000000
   87        8.588358   0.000000
   88        8.588483   0.000000
   89        9.058225   0.000000
   90        9.058500   0.000000
   91        9.061060   0.000000
   92        9.061353   0.000000
   93        9.354581   0.000000
   94        9.354806   0.000000
   95        9.356744   0.000000
   96        9.356959   0.000000
   97        9.971071   0.000000
   98        9.971207   0.000000
   99        9.983732   0.000000
  100        9.983887   0.000000
  101       10.209258   0.000000
  102       10.209417   0.000000
  103       10.233215   0.000000
  104       10.233359   0.000000
  105       10.559655   0.000000
  106       10.559824   0.000000
  107       10.563185   0.000000
  108       10.563381   0.000000
  109       10.910045   0.000000
  110       10.910056   0.000000
  111       10.912880   0.000000
  112       10.912910   0.000000
  113       11.372469   0.000000
  114       11.372494   0.000000
  115       11.377903   0.000000
  116       11.377917   0.000000
  117       12.188631   0.000000
  118       12.188657   0.000000
  119       12.195677   0.000000
  120       12.195693   0.000000
  121       12.458642   0.000000
  122       12.458708   0.000000
  123       12.462312   0.000000
  124       12.462395   0.000000
  125       12.908312   0.000000
  126       12.908345   0.000000
  127       12.914653   0.000000
  128       12.914664   0.000000
  129       13.483141   0.000000
  130       13.483220   0.000000
  131       13.496640   0.000000
  132       13.496658   0.000000
  133       13.802032   0.000000
  134       13.802204   0.000000
  135       13.813833   0.000000
  136       13.813997   0.000000
  137       14.172540   0.000000
  138       14.172782   0.000000
  139       14.192492   0.000000
  140       14.192818   0.000000
  141       14.798913   0.000000
  142       14.804421   0.000000
  143       14.808901   0.000000
  144       14.828918   0.000000
 
  0.4100000E+00  0.5000000E+00  0.0000000E+00  0.4901961E-02
    1      -15.610338   1.000000
    2      -15.610283   1.000000
    3      -15.605280   1.000000
    4      -15.605226   1.000000
    5      -10.813373   1.000000
    6      -10.813300   1.000000
    7      -10.808127   1.000000
    8      -10.808054   1.000000
    9       -7.548799   1.000000
   10       -7.548698   1.000000
   11       -7.539449   1.000000
   12       -7.539348   1.000000
   13       -6.472937   1.000000
   14       -6.472879   1.000000
   15       -6.434161   1.000000
   16       -6.434103   1.000000
   17       -4.402008   1.000000
   18       -4.401968   1.000000
   19       -4.360480   1.000000
   20       -4.360440   1.000000
   21        0.186780   0.000000
   22        0.186845   0.000000
   23        0.260324   0.000000
   24        0.260389   0.000000
   25        1.060949   0.000000
   26        1.061042   0.000000
   27        1.103801   0.000000
   28        1.103890   0.000000
   29        2.820302   0.000000
   30        2.820374   0.000000
   31        2.865768   0.000000
   32        2.865846   0.000000
   33        3.620350   0.000000
   34        3.620400   0.000000
   35        3.631656   0.000000
   36        3.631703   0.000000
   37        4.770624   0.000000
   38        4.770766   0.000000
   39        4.789318   0.000000
   40        4.789454   0.000000
   41        5.205446   0.000000
   42        5.205480   0.000000
   43        5.217004   0.000000
   44        5.217052   0.000000
   45        5.670278   0.000000
   46        5.670296   0.000000
   47        5.671578   0.000000
   48        5.671605   0.000000
   49        5.740233   0.000000
   50        5.740301   0.000000
   51        5.745315   0.000000
   52        5.745371   0.000000
   53        6.472407   0.000000
   54        6.472523   0.000000
   55        6.475275   0.000000
   56        6.475399   0.000000
   57        6.731420   0.000000
   58        6.731525   0.000000
   59        6.733716   0.000000
   60        6.733844   0.000000
   61        7.096460   0.000000
   62        7.096500   0.000000
   63        7.101840   0.000000
   64        7.101875   0.000000
   65        7.280062   0.000000
   66        7.280155   0.000000
   67        7.282164   0.000000
   68        7.282255   0.000000
   69        7.668341   0.000000
   70        7.668580   0.000000
   71        7.670352   0.000000
   72        7.670590   0.000000
   73        7.832195   0.000000
   74        7.832405   0.000000
   75        7.838379   0.000000
   76        7.838570   0.000000
   77        8.151733   0.000000
   78        8.151797   0.000000
   79        8.156411   0.000000
   80        8.156471   0.000000
   81        8.378152   0.000000
   82        8.378484   0.000000
   83        8.386949   0.000000
   84        8.387295   0.000000
   85        8.621986   0.000000
   86        8.622109   0.000000
   87        8.623943   0.000000
   88        8.624086   0.000000
   89        9.098464   0.000000
   90        9.098607   0.000000
   91        9.101346   0.000000
   92        9.101495   0.000000
   93        9.366357   0.000000
   94        9.366439   0.000000
   95        9.368481   0.000000
   96        9.368575   0.000000
   97        9.956848   0.000000
   98        9.956939   0.000000
   99        9.973381   0.000000
  100        9.973488   0.000000
  101       10.159917   0.000000
  102       10.160098   0.000000
  103       10.183092   0.000000
  104       10.183250   0.000000
  105       10.594041   0.000000
  106       10.594125   0.000000
  107       10.597271   0.000000
  108       10.597375   0.000000
  109       10.935887   0.000000
  110       10.935925   0.000000
  111       10.938168   0.000000
  112       10.938227   0.000000
  113       11.370805   0.000000
  114       11.370840   0.000000
  115       11.375730   0.000000
  116       11.375748   0.000000
  117       12.192191   0.000000
  118       12.192202   0.000000
  119       12.198661   0.000000
  120       12.198679   0.000000
  121       12.475562   0.000000
  122       12.475610   0.000000
  123       12.480134   0.000000
  124       12.480196   0.000000
  125       12.965298   0.000000
  126       12.965319   0.000000
  127       12.971352   0.000000
  128       12.971363   0.000000
  129       13.603930   0.000000
  130       13.603980   0.000000
  131       13.614428   0.000000
  132       13.614494   0.000000
  133       13.792034   0.000000
  134       13.792193   0.000000
  135       13.804617   0.000000
  136       13.804802   0.000000
  137       14.224114   0.000000
  138       14.226610   0.000000
  139       14.244652   0.000000
  140       14.246148   0.000000
  141       14.785480   0.000000
  142       14.797308   0.000000
  143       14.798270   0.000000
  144       14.849590   0.000000
 
  0.4000000E+00  0.5000000E+00  0.0000000E+00  0.4901961E-02
    1      -15.627283   1.000000
    2      -15.627223   1.000000
    3      -15.622237   1.000000
    4      -15.622178   1.000000
    5      -10.798720   1.000000
    6      -10.798643   1.000000
    7      -10.793336   1.000000
    8      -10.793259   1.000000
    9       -7.566937   1.000000
   10       -7.566833   1.000000
   11       -7.557485   1.000000
   12       -7.557381   1.000000
   13       -6.410219   1.000000
   14       -6.410163   1.000000
   15       -6.371391   1.000000
   16       -6.371336   1.000000
   17       -4.403754   1.000000
   18       -4.403709   1.000000
   19       -4.361831   1.000000
   20       -4.361786   1.000000
   21        0.186007   0.000000
   22        0.186078   0.000000
   23        0.261958   0.000000
   24        0.262030   0.000000
   25        1.038873   0.000000
   26        1.038968   0.000000
   27        1.085629   0.000000
   28        1.085720   0.000000
   29        2.815391   0.000000
   30        2.815466   0.000000
   31        2.863803   0.000000
   32        2.863885   0.000000
   33        3.582117   0.000000
   34        3.582170   0.000000
   35        3.594303   0.000000
   36        3.594354   0.000000
   37        4.745700   0.000000
   38        4.745853   0.000000
   39        4.763880   0.000000
   40        4.764026   0.000000
   41        5.155023   0.000000
   42        5.155058   0.000000
   43        5.166195   0.000000
   44        5.166244   0.000000
   45        5.582926   0.000000
   46        5.582939   0.000000
   47        5.584019   0.000000
   48        5.584042   0.000000
   49        5.688898   0.000000
   50        5.688994   0.000000
   51        5.694102   0.000000
   52        5.694185   0.000000
   53        6.416568   0.000000
   54        6.416672   0.000000
   55        6.420462   0.000000
   56        6.420567   0.000000
   57        6.670875   0.000000
   58        6.670991   0.000000
   59        6.672914   0.000000
   60        6.673037   0.000000
   61        7.170413   0.000000
   62        7.170496   0.000000
   63        7.175706   0.000000
   64        7.175779   0.000000
   65        7.364256   0.000000
   66        7.364349   0.000000
   67        7.366667   0.000000
   68        7.366750   0.000000
   69        7.760447   0.000000
   70        7.760706   0.000000
   71        7.766018   0.000000
   72        7.766308   0.000000
   73        7.840511   0.000000
   74        7.840828   0.000000
   75        7.846355   0.000000
   76        7.846682   0.000000
   77        8.216137   0.000000
   78        8.216161   0.000000
   79        8.218425   0.000000
   80        8.218472   0.000000
   81        8.357745   0.000000
   82        8.358031   0.000000
   83        8.365344   0.000000
   84        8.365633   0.000000
   85        8.663698   0.000000
   86        8.663788   0.000000
   87        8.666175   0.000000
   88        8.666275   0.000000
   89        9.133464   0.000000
   90        9.133566   0.000000
   91        9.138111   0.000000
   92        9.138190   0.000000
   93        9.391063   0.000000
   94        9.391271   0.000000
   95        9.394324   0.000000
   96        9.394555   0.000000
   97        9.929399   0.000000
   98        9.929451   0.000000
   99        9.947752   0.000000
  100        9.947813   0.000000
  101       10.138728   0.000000
  102       10.138925   0.000000
  103       10.159076   0.000000
  104       10.159247   0.000000
  105       10.621068   0.000000
  106       10.621127   0.000000
  107       10.624577   0.000000
  108       10.624617   0.000000
  109       10.978293   0.000000
  110       10.978321   0.000000
  111       10.979668   0.000000
  112       10.979707   0.000000
  113       11.390460   0.000000
  114       11.390522   0.000000
  115       11.394675   0.000000
  116       11.394721   0.000000
  117       12.155785   0.000000
  118       12.155813   0.000000
  119       12.161575   0.000000
  120       12.161613   0.000000
  121       12.527086   0.000000
  122       12.527105   0.000000
  123       12.532397   0.000000
  124       12.532422   0.000000
  125       13.009745   0.000000
  126       13.009758   0.000000
  127       13.015477   0.000000
  128       13.015501   0.000000
  129       13.688435   0.000000
  130       13.688555   0.000000
  131       13.695951   0.000000
  132       13.696084   0.000000
  133       13.789569   0.000000
  134       13.789741   0.000000
  135       13.802970   0.000000
  136       13.803129   0.000000
  137       14.304057   0.000000
  138       14.309559   0.000000
  139       14.324647   0.000000
  140       14.332990   0.000000
  141       14.686604   0.000000
  142       14.698009   0.000000
  143       14.703906   0.000000
  144       14.903770   0.000000
 
  0.3900000E+00  0.5000000E+00  0.0000000E+00  0.4901961E-02
    1      -15.645542   1.000000
    2      -15.645478   1.000000
    3      -15.640513   1.000000
    4      -15.640449   1.000000
    5      -10.783640   1.000000
    6      -10.783560   1.000000
    7      -10.778125   1.000000
    8      -10.778045   1.000000
    9       -7.581091   1.000000
   10       -7.580985   1.000000
   11       -7.571507   1.000000
   12       -7.571401   1.000000
   13       -6.347160   1.000000
   14       -6.347107   1.000000
   15       -6.308135   1.000000
   16       -6.308082   1.000000
   17       -4.404653   1.000000
   18       -4.404603   1.000000
   19       -4.362318   1.000000
   20       -4.362268   1.000000
   21        0.183616   0.000000
   22        0.183694   0.000000
   23        0.262064   0.000000
   24        0.262142   0.000000
   25        1.017223   0.000000
   26        1.017318   0.000000
   27        1.067856   0.000000
   28        1.067948   0.000000
   29        2.805596   0.000000
   30        2.805674   0.000000
   31        2.856579   0.000000
   32        2.856665   0.000000
   33        3.543985   0.000000
   34        3.544043   0.000000
   35        3.557038   0.000000
   36        3.557094   0.000000
   37        4.711657   0.000000
   38        4.711813   0.000000
   39        4.728820   0.000000
   40        4.728971   0.000000
   41        5.110799   0.000000
   42        5.110828   0.000000
   43        5.121056   0.000000
   44        5.121101   0.000000
   45        5.497934   0.000000
   46        5.497946   0.000000
   47        5.498881   0.000000
   48        5.498899   0.000000
   49        5.644574   0.000000
   50        5.644698   0.000000
   51        5.649834   0.000000
   52        5.649946   0.000000
   53        6.361268   0.000000
   54        6.361368   0.000000
   55        6.366082   0.000000
   56        6.366178   0.000000
   57        6.602190   0.000000
   58        6.602287   0.000000
   59        6.604350   0.000000
   60        6.604445   0.000000
   61        7.252309   0.000000
   62        7.252439   0.000000
   63        7.257942   0.000000
   64        7.258058   0.000000
   65        7.445071   0.000000
   66        7.445168   0.000000
   67        7.447984   0.000000
   68        7.448071   0.000000
   69        7.758866   0.000000
   70        7.758978   0.000000
   71        7.767822   0.000000
   72        7.767934   0.000000
   73        7.942472   0.000000
   74        7.942623   0.000000
   75        7.945175   0.000000
   76        7.945360   0.000000
   77        8.227483   0.000000
   78        8.227551   0.000000
   79        8.229459   0.000000
   80        8.229551   0.000000
   81        8.391066   0.000000
   82        8.391246   0.000000
   83        8.396120   0.000000
   84        8.396285   0.000000
   85        8.685838   0.000000
   86        8.686032   0.000000
   87        8.689020   0.000000
   88        8.689201   0.000000
   89        9.170611   0.000000
   90        9.170766   0.000000
   91        9.178344   0.000000
   92        9.178484   0.000000
   93        9.431466   0.000000
   94        9.431670   0.000000
   95        9.435896   0.000000
   96        9.436126   0.000000
   97        9.903030   0.000000
   98        9.903062   0.000000
   99        9.920768   0.000000
  100        9.920805   0.000000
  101       10.135291   0.000000
  102       10.135491   0.000000
  103       10.152106   0.000000
  104       10.152282   0.000000
  105       10.638105   0.000000
  106       10.638203   0.000000
  107       10.643019   0.000000
  108       10.643104   0.000000
  109       11.035943   0.000000
  110       11.036105   0.000000
  111       11.036713   0.000000
  112       11.036841   0.000000
  113       11.431515   0.000000
  114       11.431603   0.000000
  115       11.434912   0.000000
  116       11.434983   0.000000
  117       12.098551   0.000000
  118       12.098586   0.000000
  119       12.103941   0.000000
  120       12.103986   0.000000
  121       12.594524   0.000000
  122       12.594563   0.000000
  123       12.600204   0.000000
  124       12.600233   0.000000
  125       13.034909   0.000000
  126       13.034937   0.000000
  127       13.040083   0.000000
  128       13.040128   0.000000
  129       13.744432   0.000000
  130       13.744499   0.000000
  131       13.749231   0.000000
  132       13.749290   0.000000
  133       13.796606   0.000000
  134       13.796698   0.000000
  135       13.809177   0.000000
  136       13.809260   0.000000
  137       14.397310   0.000000
  138       14.400637   0.000000
  139       14.415165   0.000000
  140       14.427132   0.000000
  141       14.553622   0.000000
  142       14.556233   0.000000
  143       14.562173   0.000000
  144       14.585027   0.000000
 
  0.3800000E+00  0.5000000E+00  0.0000000E+00  0.4901961E-02
    1      -15.664998   1.000000
    2      -15.664929   1.000000
    3      -15.659991   1.000000
    4      -15.659922   1.000000
    5      -10.768413   1.000000
    6      -10.768331   1.000000
    7      -10.762778   1.000000
    8      -10.762696   1.000000
    9       -7.590837   1.000000
   10       -7.590729   1.000000
   11       -7.581103   1.000000
   12       -7.580995   1.000000
   13       -6.284312   1.000000
   14       -6.284263   1.000000
   15       -6.244979   1.000000
   16       -6.244930   1.000000
   17       -4.404397   1.000000
   18       -4.404342   1.000000
   19       -4.361644   1.000000
   20       -4.361588   1.000000
   21        0.179307   0.000000
   22        0.179391   0.000000
   23        0.260255   0.000000
   24        0.260340   0.000000
   25        0.996424   0.000000
   26        0.996520   0.000000
   27        1.050833   0.000000
   28        1.050926   0.000000
   29        2.789718   0.000000
   30        2.789801   0.000000
   31        2.842831   0.000000
   32        2.842922   0.000000
   33        3.507148   0.000000
   34        3.507213   0.000000
   35        3.520991   0.000000
   36        3.521054   0.000000
   37        4.669229   0.000000
   38        4.669382   0.000000
   39        4.685118   0.000000
   40        4.685266   0.000000
   41        5.070656   0.000000
   42        5.070675   0.000000
   43        5.079535   0.000000
   44        5.079570   0.000000
   45        5.415463   0.000000
   46        5.415478   0.000000
   47        5.416301   0.000000
   48        5.416315   0.000000
   49        5.608063   0.000000
   50        5.608206   0.000000
   51        5.613469   0.000000
   52        5.613603   0.000000
   53        6.309096   0.000000
   54        6.309191   0.000000
   55        6.314629   0.000000
   56        6.314720   0.000000
   57        6.530712   0.000000
   58        6.530786   0.000000
   59        6.533114   0.000000
   60        6.533182   0.000000
   61        7.332203   0.000000
   62        7.332393   0.000000
   63        7.339047   0.000000
   64        7.339220   0.000000
   65        7.511133   0.000000
   66        7.511227   0.000000
   67        7.513726   0.000000
   68        7.513813   0.000000
   69        7.751625   0.000000
   70        7.751786   0.000000
   71        7.762665   0.000000
   72        7.762819   0.000000
   73        8.058695   0.000000
   74        8.058836   0.000000
   75        8.061113   0.000000
   76        8.061279   0.000000
   77        8.194097   0.000000
   78        8.194223   0.000000
   79        8.196758   0.000000
   80        8.196918   0.000000
   81        8.470557   0.000000
   82        8.470781   0.000000
   83        8.475108   0.000000
   84        8.475307   0.000000
   85        8.685816   0.000000
   86        8.686031   0.000000
   87        8.688543   0.000000
   88        8.688741   0.000000
   89        9.220408   0.000000
   90        9.220541   0.000000
   91        9.230846   0.000000
   92        9.230964   0.000000
   93        9.481862   0.000000
   94        9.482005   0.000000
   95        9.487211   0.000000
   96        9.487382   0.000000
   97        9.888328   0.000000
   98        9.888356   0.000000
   99        9.903896   0.000000
  100        9.903926   0.000000
  101       10.140226   0.000000
  102       10.140427   0.000000
  103       10.153432   0.000000
  104       10.153609   0.000000
  105       10.648346   0.000000
  106       10.648431   0.000000
  107       10.655343   0.000000
  108       10.655418   0.000000
  109       11.106262   0.000000
  110       11.106438   0.000000
  111       11.107718   0.000000
  112       11.107859   0.000000
  113       11.491223   0.000000
  114       11.491335   0.000000
  115       11.493786   0.000000
  116       11.493878   0.000000
  117       12.032914   0.000000
  118       12.032953   0.000000
  119       12.038109   0.000000
  120       12.038158   0.000000
  121       12.664331   0.000000
  122       12.664410   0.000000
  123       12.670245   0.000000
  124       12.670312   0.000000
  125       13.037537   0.000000
  126       13.037587   0.000000
  127       13.041781   0.000000
  128       13.041846   0.000000
  129       13.784287   0.000000
  130       13.784437   0.000000
  131       13.789857   0.000000
  132       13.789945   0.000000
  133       13.814877   0.000000
  134       13.814966   0.000000
  135       13.823333   0.000000
  136       13.823377   0.000000
  137       14.342746   0.000000
  138       14.343898   0.000000
  139       14.364485   0.000000
  140       14.365861   0.000000
  141       14.560875   0.000000
  142       14.570678   0.000000
  143       14.579877   0.000000
  144       14.585670   0.000000
 
  0.3700000E+00  0.5000000E+00  0.0000000E+00  0.4901961E-02
    1      -15.685526   1.000000
    2      -15.685453   1.000000
    3      -15.680547   1.000000
    4      -15.680474   1.000000
    5      -10.753317   1.000000
    6      -10.753233   1.000000
    7      -10.747574   1.000000
    8      -10.747490   1.000000
    9       -7.595818   1.000000
   10       -7.595707   1.000000
   11       -7.585918   1.000000
   12       -7.585808   1.000000
   13       -6.222193   1.000000
   14       -6.222148   1.000000
   15       -6.182478   1.000000
   16       -6.182434   1.000000
   17       -4.402649   1.000000
   18       -4.402588   1.000000
   19       -4.359489   1.000000
   20       -4.359427   1.000000
   21        0.172842   0.000000
   22        0.172931   0.000000
   23        0.256196   0.000000
   24        0.256286   0.000000
   25        0.976822   0.000000
   26        0.976918   0.000000
   27        1.034819   0.000000
   28        1.034913   0.000000
   29        2.766607   0.000000
   30        2.766694   0.000000
   31        2.821324   0.000000
   32        2.821419   0.000000
   33        3.472861   0.000000
   34        3.472935   0.000000
   35        3.487316   0.000000
   36        3.487388   0.000000
   37        4.620124   0.000000
   38        4.620270   0.000000
   39        4.634743   0.000000
   40        4.634884   0.000000
   41        5.031804   0.000000
   42        5.031813   0.000000
   43        5.039018   0.000000
   44        5.039041   0.000000
   45        5.335648   0.000000
   46        5.335669   0.000000
   47        5.336415   0.000000
   48        5.336427   0.000000
   49        5.579483   0.000000
   50        5.579631   0.000000
   51        5.585199   0.000000
   52        5.585341   0.000000
   53        6.261845   0.000000
   54        6.261935   0.000000
   55        6.267870   0.000000
   56        6.267956   0.000000
   57        6.458887   0.000000
   58        6.458941   0.000000
   59        6.461649   0.000000
   60        6.461693   0.000000
   61        7.396513   0.000000
   62        7.396788   0.000000
   63        7.406144   0.000000
   64        7.406405   0.000000
   65        7.549037   0.000000
   66        7.549133   0.000000
   67        7.552100   0.000000
   68        7.552209   0.000000
   69        7.779947   0.000000
   70        7.780112   0.000000
   71        7.793045   0.000000
   72        7.793199   0.000000
   73        8.103480   0.000000
   74        8.103744   0.000000
   75        8.107179   0.000000
   76        8.107464   0.000000
   77        8.219955   0.000000
   78        8.220028   0.000000
   79        8.220471   0.000000
   80        8.220570   0.000000
   81        8.536736   0.000000
   82        8.536979   0.000000
   83        8.542316   0.000000
   84        8.542546   0.000000
   85        8.694555   0.000000
   86        8.694799   0.000000
   87        8.697784   0.000000
   88        8.698050   0.000000
   89        9.281968   0.000000
   90        9.282069   0.000000
   91        9.293807   0.000000
   92        9.293895   0.000000
   93        9.534071   0.000000
   94        9.534135   0.000000
   95        9.541142   0.000000
   96        9.541223   0.000000
   97        9.890960   0.000000
   98        9.890996   0.000000
   99        9.903064   0.000000
  100        9.903104   0.000000
  101       10.149808   0.000000
  102       10.150014   0.000000
  103       10.159365   0.000000
  104       10.159549   0.000000
  105       10.657420   0.000000
  106       10.657485   0.000000
  107       10.666603   0.000000
  108       10.666659   0.000000
  109       11.187090   0.000000
  110       11.187237   0.000000
  111       11.189470   0.000000
  112       11.189582   0.000000
  113       11.564690   0.000000
  114       11.564815   0.000000
  115       11.566411   0.000000
  116       11.566513   0.000000
  117       11.965364   0.000000
  118       11.965407   0.000000
  119       11.970423   0.000000
  120       11.970475   0.000000
  121       12.727217   0.000000
  122       12.727345   0.000000
  123       12.733751   0.000000
  124       12.733867   0.000000
  125       13.020240   0.000000
  126       13.020319   0.000000
  127       13.023600   0.000000
  128       13.023680   0.000000
  129       13.790834   0.000000
  130       13.790955   0.000000
  131       13.801985   0.000000
  132       13.802115   0.000000
  133       13.865247   0.000000
  134       13.865297   0.000000
  135       13.872797   0.000000
  136       13.872824   0.000000
  137       14.203254   0.000000
  138       14.203694   0.000000
  139       14.221317   0.000000
  140       14.221803   0.000000
  141       14.675763   0.000000
  142       14.679931   0.000000
  143       14.699805   0.000000
  144       14.751054   0.000000
 
  0.3600000E+00  0.5000000E+00  0.0000000E+00  0.4901961E-02
    1      -15.707000   1.000000
    2      -15.706924   1.000000
    3      -15.702056   1.000000
    4      -15.701979   1.000000
    5      -10.738620   1.000000
    6      -10.738534   1.000000
    7      -10.732785   1.000000
    8      -10.732700   1.000000
    9       -7.595728   1.000000
   10       -7.595615   1.000000
   11       -7.585650   1.000000
   12       -7.585538   1.000000
   13       -6.161310   1.000000
   14       -6.161270   1.000000
   15       -6.121174   1.000000
   16       -6.121134   1.000000
   17       -4.399046   1.000000
   18       -4.398980   1.000000
   19       -4.355513   1.000000
   20       -4.355446   1.000000
   21        0.164053   0.000000
   22        0.164147   0.000000
   23        0.249620   0.000000
   24        0.249716   0.000000
   25        0.958648   0.000000
   26        0.958743   0.000000
   27        1.019952   0.000000
   28        1.020046   0.000000
   29        2.735277   0.000000
   30        2.735366   0.000000
   31        2.790993   0.000000
   32        2.791092   0.000000
   33        3.442280   0.000000
   34        3.442364   0.000000
   35        3.457049   0.000000
   36        3.457131   0.000000
   37        4.566353   0.000000
   38        4.566490   0.000000
   39        4.579870   0.000000
   40        4.580004   0.000000
   41        4.991832   0.000000
   42        4.991842   0.000000
   43        4.997311   0.000000
   44        4.997324   0.000000
   45        5.258629   0.000000
   46        5.258659   0.000000
   47        5.259374   0.000000
   48        5.259391   0.000000
   49        5.557984   0.000000
   50        5.558121   0.000000
   51        5.564073   0.000000
   52        5.564209   0.000000
   53        6.221010   0.000000
   54        6.221095   0.000000
   55        6.227225   0.000000
   56        6.227312   0.000000
   57        6.388139   0.000000
   58        6.388176   0.000000
   59        6.391485   0.000000
   60        6.391513   0.000000
   61        7.420754   0.000000
   62        7.421096   0.000000
   63        7.433104   0.000000
   64        7.433440   0.000000
   65        7.579407   0.000000
   66        7.579559   0.000000
   67        7.584604   0.000000
   68        7.584759   0.000000
   69        7.842522   0.000000
   70        7.842663   0.000000
   71        7.857226   0.000000
   72        7.857357   0.000000
   73        8.063269   0.000000
   74        8.063513   0.000000
   75        8.066429   0.000000
   76        8.066699   0.000000
   77        8.316015   0.000000
   78        8.316145   0.000000
   79        8.317666   0.000000
   80        8.317803   0.000000
   81        8.558490   0.000000
   82        8.558573   0.000000
   83        8.562262   0.000000
   84        8.562339   0.000000
   85        8.763426   0.000000
   86        8.763699   0.000000
   87        8.766977   0.000000
   88        8.767270   0.000000
   89        9.343657   0.000000
   90        9.343749   0.000000
   91        9.355356   0.000000
   92        9.355439   0.000000
   93        9.585241   0.000000
   94        9.585385   0.000000
   95        9.595531   0.000000
   96        9.595653   0.000000
   97        9.912063   0.000000
   98        9.912139   0.000000
   99        9.919868   0.000000
  100        9.919955   0.000000
  101       10.164353   0.000000
  102       10.164580   0.000000
  103       10.170412   0.000000
  104       10.170617   0.000000
  105       10.670943   0.000000
  106       10.670999   0.000000
  107       10.682034   0.000000
  108       10.682081   0.000000
  109       11.275977   0.000000
  110       11.276104   0.000000
  111       11.279148   0.000000
  112       11.279238   0.000000
  113       11.643737   0.000000
  114       11.643814   0.000000
  115       11.644701   0.000000
  116       11.644769   0.000000
  117       11.902886   0.000000
  118       11.902938   0.000000
  119       11.907622   0.000000
  120       11.907682   0.000000
  121       12.771171   0.000000
  122       12.771324   0.000000
  123       12.779976   0.000000
  124       12.780118   0.000000
  125       12.992310   0.000000
  126       12.992418   0.000000
  127       12.997607   0.000000
  128       12.997699   0.000000
  129       13.781743   0.000000
  130       13.781800   0.000000
  131       13.793869   0.000000
  132       13.793914   0.000000
  133       13.918799   0.000000
  134       13.918823   0.000000
  135       13.927192   0.000000
  136       13.927216   0.000000
  137       14.095589   0.000000
  138       14.095831   0.000000
  139       14.109643   0.000000
  140       14.109873   0.000000
  141       14.782933   0.000000
  142       14.796626   0.000000
  143       14.814822   0.000000
  144       14.904910   0.000000
 
  0.3500000E+00  0.5000000E+00  0.0000000E+00  0.4901961E-02
    1      -15.729301   1.000000
    2      -15.729221   1.000000
    3      -15.724398   1.000000
    4      -15.724318   1.000000
    5      -10.724579   1.000000
    6      -10.724492   1.000000
    7      -10.718670   1.000000
    8      -10.718583   1.000000
    9       -7.590318   1.000000
   10       -7.590204   1.000000
   11       -7.580052   1.000000
   12       -7.579938   1.000000
   13       -6.102166   1.000000
   14       -6.102131   1.000000
   15       -6.061606   1.000000
   16       -6.061570   1.000000
   17       -4.393219   1.000000
   18       -4.393146   1.000000
   19       -4.349372   1.000000
   20       -4.349299   1.000000
   21        0.152858   0.000000
   22        0.152955   0.000000
   23        0.240355   0.000000
   24        0.240455   0.000000
   25        0.941991   0.000000
   26        0.942085   0.000000
   27        1.006233   0.000000
   28        1.006325   0.000000
   29        2.695060   0.000000
   30        2.695152   0.000000
   31        2.751139   0.000000
   32        2.751241   0.000000
   33        3.416258   0.000000
   34        3.416352   0.000000
   35        3.430961   0.000000
   36        3.431053   0.000000
   37        4.509736   0.000000
   38        4.509864   0.000000
   39        4.522380   0.000000
   40        4.522506   0.000000
   41        4.949316   0.000000
   42        4.949334   0.000000
   43        4.953189   0.000000
   44        4.953194   0.000000
   45        5.184569   0.000000
   46        5.184610   0.000000
   47        5.185354   0.000000
   48        5.185382   0.000000
   49        5.541670   0.000000
   50        5.541785   0.000000
   51        5.547978   0.000000
   52        5.548097   0.000000
   53        6.187560   0.000000
   54        6.187653   0.000000
   55        6.193520   0.000000
   56        6.193623   0.000000
   57        6.319875   0.000000
   58        6.319909   0.000000
   59        6.324308   0.000000
   60        6.324347   0.000000
   61        7.400262   0.000000
   62        7.400604   0.000000
   63        7.412737   0.000000
   64        7.413069   0.000000
   65        7.621581   0.000000
   66        7.621780   0.000000
   67        7.627155   0.000000
   68        7.627356   0.000000
   69        7.908885   0.000000
   70        7.908958   0.000000
   71        7.923822   0.000000
   72        7.923882   0.000000
   73        8.027932   0.000000
   74        8.028044   0.000000
   75        8.030682   0.000000
   76        8.030776   0.000000
   77        8.376314   0.000000
   78        8.376519   0.000000
   79        8.379933   0.000000
   80        8.380139   0.000000
   81        8.601528   0.000000
   82        8.601588   0.000000
   83        8.605131   0.000000
   84        8.605180   0.000000
   85        8.868788   0.000000
   86        8.869017   0.000000
   87        8.871986   0.000000
   88        8.872236   0.000000
   89        9.390773   0.000000
   90        9.390876   0.000000
   91        9.400776   0.000000
   92        9.400874   0.000000
   93        9.642484   0.000000
   94        9.642721   0.000000
   95        9.656118   0.000000
   96        9.656322   0.000000
   97        9.943840   0.000000
   98        9.944011   0.000000
   99        9.948281   0.000000
  100        9.948469   0.000000
  101       10.188931   0.000000
  102       10.189211   0.000000
  103       10.192385   0.000000
  104       10.192642   0.000000
  105       10.693033   0.000000
  106       10.693088   0.000000
  107       10.705469   0.000000
  108       10.705516   0.000000
  109       11.370311   0.000000
  110       11.370419   0.000000
  111       11.374060   0.000000
  112       11.374132   0.000000
  113       11.702673   0.000000
  114       11.702787   0.000000
  115       11.705791   0.000000
  116       11.705930   0.000000
  117       11.868234   0.000000
  118       11.868299   0.000000
  119       11.872033   0.000000
  120       11.872107   0.000000
  121       12.776772   0.000000
  122       12.776889   0.000000
  123       12.789204   0.000000
  124       12.789309   0.000000
  125       12.974585   0.000000
  126       12.974672   0.000000
  127       12.984314   0.000000
  128       12.984387   0.000000
  129       13.744650   0.000000
  130       13.744679   0.000000
  131       13.756312   0.000000
  132       13.756354   0.000000
  133       13.918511   0.000000
  134       13.918566   0.000000
  135       13.928018   0.000000
  136       13.928074   0.000000
  137       14.102752   0.000000
  138       14.102857   0.000000
  139       14.107888   0.000000
  140       14.107997   0.000000
  141       14.878720   0.000000
  142       14.887043   0.000000
  143       14.898378   0.000000
  144       14.901559   0.000000
 
  0.3400000E+00  0.5000000E+00  0.0000000E+00  0.4901961E-02
    1      -15.752301   1.000000
    2      -15.752218   1.000000
    3      -15.747446   1.000000
    4      -15.747363   1.000000
    5      -10.711425   1.000000
    6      -10.711338   1.000000
    7      -10.705460   1.000000
    8      -10.705373   1.000000
    9       -7.579386   1.000000
   10       -7.579269   1.000000
   11       -7.568919   1.000000
   12       -7.568802   1.000000
   13       -6.045245   1.000000
   14       -6.045215   1.000000
   15       -6.004295   1.000000
   16       -6.004265   1.000000
   17       -4.384786   1.000000
   18       -4.384707   1.000000
   19       -4.340716   1.000000
   20       -4.340637   1.000000
   21        0.139266   0.000000
   22        0.139367   0.000000
   23        0.228342   0.000000
   24        0.228445   0.000000
   25        0.926815   0.000000
   26        0.926908   0.000000
   27        0.993551   0.000000
   28        0.993642   0.000000
   29        2.645728   0.000000
   30        2.645822   0.000000
   31        2.701573   0.000000
   32        2.701677   0.000000
   33        3.395218   0.000000
   34        3.395322   0.000000
   35        3.409452   0.000000
   36        3.409555   0.000000
   37        4.451728   0.000000
   38        4.451848   0.000000
   39        4.463717   0.000000
   40        4.463837   0.000000
   41        4.903814   0.000000
   42        4.903839   0.000000
   43        4.906357   0.000000
   44        4.906361   0.000000
   45        5.113663   0.000000
   46        5.113716   0.000000
   47        5.114557   0.000000
   48        5.114601   0.000000
   49        5.527924   0.000000
   50        5.528008   0.000000
   51        5.534103   0.000000
   52        5.534195   0.000000
   53        6.160276   0.000000
   54        6.160411   0.000000
   55        6.165479   0.000000
   56        6.165625   0.000000
   57        6.257163   0.000000
   58        6.257232   0.000000
   59        6.263856   0.000000
   60        6.263943   0.000000
   61        7.357431   0.000000
   62        7.357761   0.000000
   63        7.369675   0.000000
   64        7.369993   0.000000
   65        7.650975   0.000000
   66        7.651234   0.000000
   67        7.656871   0.000000
   68        7.657139   0.000000
   69        7.923098   0.000000
   70        7.923132   0.000000
   71        7.933556   0.000000
   72        7.933598   0.000000
   73        8.047044   0.000000
   74        8.047286   0.000000
   75        8.058673   0.000000
   76        8.058885   0.000000
   77        8.399673   0.000000
   78        8.399766   0.000000
   79        8.404072   0.000000
   80        8.404159   0.000000
   81        8.702826   0.000000
   82        8.702953   0.000000
   83        8.706823   0.000000
   84        8.706936   0.000000
   85        8.983716   0.000000
   86        8.983916   0.000000
   87        8.986846   0.000000
   88        8.987068   0.000000
   89        9.416265   0.000000
   90        9.416375   0.000000
   91        9.424690   0.000000
   92        9.424791   0.000000
   93        9.711995   0.000000
   94        9.712309   0.000000
   95        9.727997   0.000000
   96        9.728278   0.000000
   97        9.971479   0.000000
   98        9.971645   0.000000
   99        9.975246   0.000000
  100        9.975434   0.000000
  101       10.233182   0.000000
  102       10.233472   0.000000
  103       10.235789   0.000000
  104       10.236058   0.000000
  105       10.725683   0.000000
  106       10.725742   0.000000
  107       10.738750   0.000000
  108       10.738801   0.000000
  109       11.466233   0.000000
  110       11.466315   0.000000
  111       11.470084   0.000000
  112       11.470137   0.000000
  113       11.692896   0.000000
  114       11.692952   0.000000
  115       11.698571   0.000000
  116       11.698639   0.000000
  117       11.910774   0.000000
  118       11.910845   0.000000
  119       11.914157   0.000000
  120       11.914222   0.000000
  121       12.735806   0.000000
  122       12.735870   0.000000
  123       12.748904   0.000000
  124       12.748950   0.000000
  125       12.982175   0.000000
  126       12.982227   0.000000
  127       12.993276   0.000000
  128       12.993320   0.000000
  129       13.664784   0.000000
  130       13.664857   0.000000
  131       13.674206   0.000000
  132       13.674274   0.000000
  133       13.917942   0.000000
  134       13.918014   0.000000
  135       13.923249   0.000000
  136       13.923324   0.000000
  137       14.186911   0.000000
  138       14.186976   0.000000
  139       14.189774   0.000000
  140       14.189859   0.000000
  141       14.956972   0.000000
  142       14.960898   0.000000
  143       14.965951   0.000000
  144       14.976356   0.000000
 
  0.3300000E+00  0.5000000E+00  0.0000000E+00  0.4901961E-02
    1      -15.775877   1.000000
    2      -15.775791   1.000000
    3      -15.771078   1.000000
    4      -15.770992   1.000000
    5      -10.699366   1.000000
    6      -10.699277   1.000000
    7      -10.693364   1.000000
    8      -10.693276   1.000000
    9       -7.562776   1.000000
   10       -7.562658   1.000000
   11       -7.552098   1.000000
   12       -7.551980   1.000000
   13       -5.991016   1.000000
   14       -5.990991   1.000000
   15       -5.949750   1.000000
   16       -5.949726   1.000000
   17       -4.373379   1.000000
   18       -4.373294   1.000000
   19       -4.329209   1.000000
   20       -4.329124   1.000000
   21        0.123370   0.000000
   22        0.123472   0.000000
   23        0.213628   0.000000
   24        0.213734   0.000000
   25        0.912944   0.000000
   26        0.913035   0.000000
   27        0.981679   0.000000
   28        0.981769   0.000000
   29        2.587509   0.000000
   30        2.587603   0.000000
   31        2.642626   0.000000
   32        2.642731   0.000000
   33        3.379088   0.000000
   34        3.379202   0.000000
   35        3.392504   0.000000
   36        3.392616   0.000000
   37        4.393429   0.000000
   38        4.393543   0.000000
   39        4.404950   0.000000
   40        4.405064   0.000000
   41        4.855502   0.000000
   42        4.855530   0.000000
   43        4.857114   0.000000
   44        4.857119   0.000000
   45        5.046141   0.000000
   46        5.046208   0.000000
   47        5.047207   0.000000
   48        5.047269   0.000000
   49        5.514007   0.000000
   50        5.514055   0.000000
   51        5.519629   0.000000
   52        5.519689   0.000000
   53        6.129727   0.000000
   54        6.129925   0.000000
   55        6.134722   0.000000
   56        6.134909   0.000000
   57        6.210617   0.000000
   58        6.210733   0.000000
   59        6.220743   0.000000
   60        6.220872   0.000000
   61        7.304888   0.000000
   62        7.305209   0.000000
   63        7.317101   0.000000
   64        7.317410   0.000000
   65        7.649734   0.000000
   66        7.650047   0.000000
   67        7.656020   0.000000
   68        7.656347   0.000000
   69        7.889605   0.000000
   70        7.889623   0.000000
   71        7.899324   0.000000
   72        7.899348   0.000000
   73        8.115990   0.000000
   74        8.116181   0.000000
   75        8.130552   0.000000
   76        8.130721   0.000000
   77        8.436107   0.000000
   78        8.436114   0.000000
   79        8.441562   0.000000
   80        8.441573   0.000000
   81        8.829994   0.000000
   82        8.830139   0.000000
   83        8.833978   0.000000
   84        8.834109   0.000000
   85        9.098344   0.000000
   86        9.098522   0.000000
   87        9.101355   0.000000
   88        9.101552   0.000000
   89        9.428572   0.000000
   90        9.428687   0.000000
   91        9.437191   0.000000
   92        9.437294   0.000000
   93        9.786044   0.000000
   94        9.786439   0.000000
   95        9.803202   0.000000
   96        9.803573   0.000000
   97        9.990544   0.000000
   98        9.990689   0.000000
   99        9.993666   0.000000
  100        9.993827   0.000000
  101       10.303417   0.000000
  102       10.303677   0.000000
  103       10.305539   0.000000
  104       10.305782   0.000000
  105       10.768978   0.000000
  106       10.769041   0.000000
  107       10.781961   0.000000
  108       10.782019   0.000000
  109       11.546391   0.000000
  110       11.546507   0.000000
  111       11.549073   0.000000
  112       11.549219   0.000000
  113       11.659423   0.000000
  114       11.659494   0.000000
  115       11.664148   0.000000
  116       11.664220   0.000000
  117       12.000884   0.000000
  118       12.000992   0.000000
  119       12.004154   0.000000
  120       12.004246   0.000000
  121       12.666145   0.000000
  122       12.666183   0.000000
  123       12.677933   0.000000
  124       12.677960   0.000000
  125       13.000000   0.000000
  126       13.000037   0.000000
  127       13.010456   0.000000
  128       13.010488   0.000000
  129       13.569681   0.000000
  130       13.569752   0.000000
  131       13.577781   0.000000
  132       13.577847   0.000000
  133       13.946835   0.000000
  134       13.946914   0.000000
  135       13.949542   0.000000
  136       13.949618   0.000000
  137       14.288937   0.000000
  138       14.288981   0.000000
  139       14.291840   0.000000
  140       14.291901   0.000000
  141       15.016561   0.000000
  142       15.020708   0.000000
  143       15.025157   0.000000
  144       15.035773   0.000000
 
  0.3200000E+00  0.5000000E+00  0.0000000E+00  0.4901961E-02
    1      -15.799910   1.000000
    2      -15.799822   1.000000
    3      -15.795175   1.000000
    4      -15.795086   1.000000
    5      -10.688574   1.000000
    6      -10.688485   1.000000
    7      -10.682555   1.000000
    8      -10.682467   1.000000
    9       -7.540387   1.000000
   10       -7.540267   1.000000
   11       -7.529487   1.000000
   12       -7.529368   1.000000
   13       -5.939917   1.000000
   14       -5.939899   1.000000
   15       -5.898447   1.000000
   16       -5.898429   1.000000
   17       -4.358662   1.000000
   18       -4.358570   1.000000
   19       -4.314552   1.000000
   20       -4.314460   1.000000
   21        0.105329   0.000000
   22        0.105433   0.000000
   23        0.196361   0.000000
   24        0.196468   0.000000
   25        0.900081   0.000000
   26        0.900169   0.000000
   27        0.970292   0.000000
   28        0.970379   0.000000
   29        2.521018   0.000000
   30        2.521112   0.000000
   31        2.575051   0.000000
   32        2.575154   0.000000
   33        3.367408   0.000000
   34        3.367530   0.000000
   35        3.379744   0.000000
   36        3.379867   0.000000
   37        4.335663   0.000000
   38        4.335771   0.000000
   39        4.346864   0.000000
   40        4.346973   0.000000
   41        4.804831   0.000000
   42        4.804850   0.000000
   43        4.806021   0.000000
   44        4.806032   0.000000
   45        4.982248   0.000000
   46        4.982331   0.000000
   47        4.983538   0.000000
   48        4.983618   0.000000
   49        5.497743   0.000000
   50        5.497755   0.000000
   51        5.502434   0.000000
   52        5.502460   0.000000
   53        6.083129   0.000000
   54        6.083314   0.000000
   55        6.087484   0.000000
   56        6.087646   0.000000
   57        6.196384   0.000000
   58        6.196465   0.000000
   59        6.207175   0.000000
   60        6.207267   0.000000
   61        7.246950   0.000000
   62        7.247265   0.000000
   63        7.259228   0.000000
   64        7.259532   0.000000
   65        7.618853   0.000000
   66        7.619196   0.000000
   67        7.625619   0.000000
   68        7.625977   0.000000
   69        7.843993   0.000000
   70        7.844021   0.000000
   71        7.853814   0.000000
   72        7.853851   0.000000
   73        8.198013   0.000000
   74        8.198178   0.000000
   75        8.212656   0.000000
   76        8.212804   0.000000
   77        8.501766   0.000000
   78        8.501793   0.000000
   79        8.508584   0.000000
   80        8.508613   0.000000
   81        8.963823   0.000000
   82        8.963994   0.000000
   83        8.967894   0.000000
   84        8.968052   0.000000
   85        9.201828   0.000000
   86        9.202012   0.000000
   87        9.203900   0.000000
   88        9.204086   0.000000
   89        9.448536   0.000000
   90        9.448685   0.000000
   91        9.457512   0.000000
   92        9.457645   0.000000
   93        9.843171   0.000000
   94        9.843604   0.000000
   95        9.857950   0.000000
   96        9.858364   0.000000
   97       10.018451   0.000000
   98       10.018580   0.000000
   99       10.020771   0.000000
  100       10.020926   0.000000
  101       10.395307   0.000000
  102       10.395561   0.000000
  103       10.396661   0.000000
  104       10.396897   0.000000
  105       10.821922   0.000000
  106       10.821990   0.000000
  107       10.834212   0.000000
  108       10.834276   0.000000
  109       11.533132   0.000000
  110       11.533151   0.000000
  111       11.540788   0.000000
  112       11.540809   0.000000
  113       11.706138   0.000000
  114       11.706288   0.000000
  115       11.712801   0.000000
  116       11.712927   0.000000
  117       12.099823   0.000000
  118       12.099932   0.000000
  119       12.103570   0.000000
  120       12.103665   0.000000
  121       12.586276   0.000000
  122       12.586312   0.000000
  123       12.596276   0.000000
  124       12.596313   0.000000
  125       13.015474   0.000000
  126       13.015509   0.000000
  127       13.025085   0.000000
  128       13.025115   0.000000
  129       13.481396   0.000000
  130       13.481463   0.000000
  131       13.488541   0.000000
  132       13.488602   0.000000
  133       13.994242   0.000000
  134       13.994326   0.000000
  135       13.996364   0.000000
  136       13.996440   0.000000
  137       14.396505   0.000000
  138       14.396548   0.000000
  139       14.399821   0.000000
  140       14.399891   0.000000
  141       15.058547   0.000000
  142       15.061143   0.000000
  143       15.067292   0.000000
  144       15.069924   0.000000
 
  0.3100000E+00  0.5000000E+00  0.0000000E+00  0.4901961E-02
    1      -15.824286   1.000000
    2      -15.824195   1.000000
    3      -15.819621   1.000000
    4      -15.819530   1.000000
    5      -10.679188   1.000000
    6      -10.679099   1.000000
    7      -10.673173   1.000000
    8      -10.673084   1.000000
    9       -7.512167   1.000000
   10       -7.512046   1.000000
   11       -7.501036   1.000000
   12       -7.500915   1.000000
   13       -5.892341   1.000000
   14       -5.892328   1.000000
   15       -5.850813   1.000000
   16       -5.850800   1.000000
   17       -4.340350   1.000000
   18       -4.340252   1.000000
   19       -4.296492   1.000000
   20       -4.296395   1.000000
   21        0.085353   0.000000
   22        0.085458   0.000000
   23        0.176758   0.000000
   24        0.176866   0.000000
   25        0.887843   0.000000
   26        0.887929   0.000000
   27        0.958999   0.000000
   28        0.959084   0.000000
   29        2.447145   0.000000
   30        2.447236   0.000000
   31        2.499858   0.000000
   32        2.499960   0.000000
   33        3.359455   0.000000
   34        3.359586   0.000000
   35        3.370553   0.000000
   36        3.370685   0.000000
   37        4.279063   0.000000
   38        4.279166   0.000000
   39        4.290058   0.000000
   40        4.290163   0.000000
   41        4.752397   0.000000
   42        4.752407   0.000000
   43        4.753593   0.000000
   44        4.753620   0.000000
   45        4.922225   0.000000
   46        4.922326   0.000000
   47        4.923776   0.000000
   48        4.923874   0.000000
   49        5.477931   0.000000
   50        5.477984   0.000000
   51        5.481467   0.000000
   52        5.481514   0.000000
   53        6.026639   0.000000
   54        6.026789   0.000000
   55        6.029924   0.000000
   56        6.030052   0.000000
   57        6.207432   0.000000
   58        6.207467   0.000000
   59        6.217198   0.000000
   60        6.217240   0.000000
   61        7.185039   0.000000
   62        7.185347   0.000000
   63        7.197371   0.000000
   64        7.197670   0.000000
   65        7.570045   0.000000
   66        7.570399   0.000000
   67        7.577406   0.000000
   68        7.577774   0.000000
   69        7.791385   0.000000
   70        7.791448   0.000000
   71        7.801171   0.000000
   72        7.801244   0.000000
   73        8.288908   0.000000
   74        8.289063   0.000000
   75        8.303364   0.000000
   76        8.303505   0.000000
   77        8.587522   0.000000
   78        8.587571   0.000000
   79        8.595878   0.000000
   80        8.595925   0.000000
   81        9.092920   0.000000
   82        9.093133   0.000000
   83        9.097062   0.000000
   84        9.097265   0.000000
   85        9.278187   0.000000
   86        9.278449   0.000000
   87        9.281856   0.000000
   88        9.282089   0.000000
   89        9.504028   0.000000
   90        9.504219   0.000000
   91        9.510992   0.000000
   92        9.511162   0.000000
   93        9.861771   0.000000
   94        9.862144   0.000000
   95        9.870974   0.000000
   96        9.871333   0.000000
   97       10.073556   0.000000
   98       10.073654   0.000000
   99       10.082761   0.000000
  100       10.082865   0.000000
  101       10.501195   0.000000
  102       10.501434   0.000000
  103       10.502022   0.000000
  104       10.502239   0.000000
  105       10.883342   0.000000
  106       10.883415   0.000000
  107       10.894464   0.000000
  108       10.894534   0.000000
  109       11.471520   0.000000
  110       11.471543   0.000000
  111       11.480626   0.000000
  112       11.480642   0.000000
  113       11.800421   0.000000
  114       11.800548   0.000000
  115       11.807818   0.000000
  116       11.807916   0.000000
  117       12.190475   0.000000
  118       12.190579   0.000000
  119       12.195815   0.000000
  120       12.195915   0.000000
  121       12.513388   0.000000
  122       12.513451   0.000000
  123       12.520910   0.000000
  124       12.520983   0.000000
  125       13.026421   0.000000
  126       13.026457   0.000000
  127       13.035261   0.000000
  128       13.035290   0.000000
  129       13.407419   0.000000
  130       13.407481   0.000000
  131       13.413740   0.000000
  132       13.413794   0.000000
  133       14.053488   0.000000
  134       14.053567   0.000000
  135       14.055975   0.000000
  136       14.056045   0.000000
  137       14.504432   0.000000
  138       14.504507   0.000000
  139       14.508344   0.000000
  140       14.508362   0.000000
  141       15.089925   0.000000
  142       15.092901   0.000000
  143       15.095602   0.000000
  144       15.102182   0.000000
 
  0.3000000E+00  0.5000000E+00  0.0000000E+00  0.4901961E-02
    1      -15.848890   1.000000
    2      -15.848797   1.000000
    3      -15.844303   1.000000
    4      -15.844210   1.000000
    5      -10.671307   1.000000
    6      -10.671218   1.000000
    7      -10.665315   1.000000
    8      -10.665227   1.000000
    9       -7.478113   1.000000
   10       -7.477990   1.000000
   11       -7.466742   1.000000
   12       -7.466620   1.000000
   13       -5.848612   1.000000
   14       -5.848604   1.000000
   15       -5.807199   1.000000
   16       -5.807192   1.000000
   17       -4.318240   1.000000
   18       -4.318136   1.000000
   19       -4.274854   1.000000
   20       -4.274751   1.000000
   21        0.063682   0.000000
   22        0.063787   0.000000
   23        0.155083   0.000000
   24        0.155191   0.000000
   25        0.875787   0.000000
   26        0.875871   0.000000
   27        0.947360   0.000000
   28        0.947442   0.000000
   29        2.366926   0.000000
   30        2.367013   0.000000
   31        2.418177   0.000000
   32        2.418275   0.000000
   33        3.354399   0.000000
   34        3.354538   0.000000
   35        3.364183   0.000000
   36        3.364324   0.000000
   37        4.224126   0.000000
   38        4.224225   0.000000
   39        4.235000   0.000000
   40        4.235102   0.000000
   41        4.698890   0.000000
   42        4.698905   0.000000
   43        4.700221   0.000000
   44        4.700261   0.000000
   45        4.866282   0.000000
   46        4.866401   0.000000
   47        4.868113   0.000000
   48        4.868229   0.000000
   49        5.454461   0.000000
   50        5.454589   0.000000
   51        5.456774   0.000000
   52        5.456895   0.000000
   53        5.967932   0.000000
   54        5.968058   0.000000
   55        5.970539   0.000000
   56        5.970649   0.000000
   57        6.233466   0.000000
   58        6.233503   0.000000
   59        6.242200   0.000000
   60        6.242236   0.000000
   61        7.119530   0.000000
   62        7.119831   0.000000
   63        7.131820   0.000000
   64        7.132114   0.000000
   65        7.513999   0.000000
   66        7.514357   0.000000
   67        7.521882   0.000000
   68        7.522251   0.000000
   69        7.735533   0.000000
   70        7.735617   0.000000
   71        7.745373   0.000000
   72        7.745469   0.000000
   73        8.386419   0.000000
   74        8.386571   0.000000
   75        8.401137   0.000000
   76        8.401278   0.000000
   77        8.680411   0.000000
   78        8.680472   0.000000
   79        8.690131   0.000000
   80        8.690192   0.000000
   81        9.193429   0.000000
   82        9.193544   0.000000
   83        9.196676   0.000000
   84        9.196805   0.000000
   85        9.349403   0.000000
   86        9.349712   0.000000
   87        9.355937   0.000000
   88        9.356217   0.000000
   89        9.598463   0.000000
   90        9.598739   0.000000
   91        9.603087   0.000000
   92        9.603348   0.000000
   93        9.854331   0.000000
   94        9.854688   0.000000
   95        9.859823   0.000000
   96        9.860183   0.000000
   97       10.148450   0.000000
   98       10.148612   0.000000
   99       10.162520   0.000000
  100       10.162683   0.000000
  101       10.615487   0.000000
  102       10.615701   0.000000
  103       10.616582   0.000000
  104       10.616785   0.000000
  105       10.952551   0.000000
  106       10.952626   0.000000
  107       10.962151   0.000000
  108       10.962225   0.000000
  109       11.403402   0.000000
  110       11.403431   0.000000
  111       11.413686   0.000000
  112       11.413706   0.000000
  113       11.897502   0.000000
  114       11.897608   0.000000
  115       11.905193   0.000000
  116       11.905269   0.000000
  117       12.243332   0.000000
  118       12.243437   0.000000
  119       12.251777   0.000000
  120       12.251886   0.000000
  121       12.480234   0.000000
  122       12.480420   0.000000
  123       12.484449   0.000000
  124       12.484655   0.000000
  125       13.035001   0.000000
  126       13.035038   0.000000
  127       13.043079   0.000000
  128       13.043105   0.000000
  129       13.350981   0.000000
  130       13.351038   0.000000
  131       13.356564   0.000000
  132       13.356612   0.000000
  133       14.118959   0.000000
  134       14.119035   0.000000
  135       14.121979   0.000000
  136       14.122033   0.000000
  137       14.608270   0.000000
  138       14.608347   0.000000
  139       14.612750   0.000000
  140       14.612832   0.000000
  141       15.114415   0.000000
  142       15.118839   0.000000
  143       15.121006   0.000000
  144       15.124704   0.000000
 
  0.2900000E+00  0.5000000E+00  0.0000000E+00  0.4901961E-02
    1      -15.873615   1.000000
    2      -15.873520   1.000000
    3      -15.869113   1.000000
    4      -15.869018   1.000000
    5      -10.664991   1.000000
    6      -10.664902   1.000000
    7      -10.659043   1.000000
    8      -10.658955   1.000000
    9       -7.438270   1.000000
   10       -7.438146   1.000000
   11       -7.426654   1.000000
   12       -7.426530   1.000000
   13       -5.808976   1.000000
   14       -5.808970   1.000000
   15       -5.767869   1.000000
   16       -5.767863   1.000000
   17       -4.292231   1.000000
   18       -4.292122   1.000000
   19       -4.249554   1.000000
   20       -4.249446   1.000000
   21        0.040557   0.000000
   22        0.040661   0.000000
   23        0.131609   0.000000
   24        0.131716   0.000000
   25        0.863446   0.000000
   26        0.863526   0.000000
   27        0.934912   0.000000
   28        0.934991   0.000000
   29        2.281460   0.000000
   30        2.281543   0.000000
   31        2.331162   0.000000
   32        2.331256   0.000000
   33        3.351366   0.000000
   34        3.351513   0.000000
   35        3.359827   0.000000
   36        3.359976   0.000000
   37        4.171256   0.000000
   38        4.171351   0.000000
   39        4.182068   0.000000
   40        4.182167   0.000000
   41        4.644898   0.000000
   42        4.644919   0.000000
   43        4.646324   0.000000
   44        4.646371   0.000000
   45        4.814573   0.000000
   46        4.814710   0.000000
   47        4.816682   0.000000
   48        4.816816   0.000000
   49        5.427864   0.000000
   50        5.428137   0.000000
   51        5.429134   0.000000
   52        5.429403   0.000000
   53        5.909793   0.000000
   54        5.909905   0.000000
   55        5.911995   0.000000
   56        5.912096   0.000000
   57        6.269602   0.000000
   58        6.269664   0.000000
   59        6.277482   0.000000
   60        6.277544   0.000000
   61        7.050472   0.000000
   62        7.050764   0.000000
   63        7.062574   0.000000
   64        7.062860   0.000000
   65        7.457709   0.000000
   66        7.458070   0.000000
   67        7.465872   0.000000
   68        7.466242   0.000000
   69        7.679793   0.000000
   70        7.679888   0.000000
   71        7.689945   0.000000
   72        7.690052   0.000000
   73        8.487450   0.000000
   74        8.487603   0.000000
   75        8.503052   0.000000
   76        8.503196   0.000000
   77        8.768738   0.000000
   78        8.768798   0.000000
   79        8.779088   0.000000
   80        8.779150   0.000000
   81        9.243214   0.000000
   82        9.243522   0.000000
   83        9.249815   0.000000
   84        9.250149   0.000000
   85        9.462776   0.000000
   86        9.463013   0.000000
   87        9.468405   0.000000
   88        9.468627   0.000000
   89        9.696503   0.000000
   90        9.697036   0.000000
   91        9.701028   0.000000
   92        9.701556   0.000000
   93        9.853302   0.000000
   94        9.853762   0.000000
   95        9.855968   0.000000
   96        9.856444   0.000000
   97       10.225258   0.000000
   98       10.225482   0.000000
   99       10.242033   0.000000
  100       10.242254   0.000000
  101       10.734915   0.000000
  102       10.735137   0.000000
  103       10.736705   0.000000
  104       10.736925   0.000000
  105       11.029624   0.000000
  106       11.029699   0.000000
  107       11.037476   0.000000
  108       11.037551   0.000000
  109       11.334274   0.000000
  110       11.334313   0.000000
  111       11.346000   0.000000
  112       11.346031   0.000000
  113       11.987031   0.000000
  114       11.987116   0.000000
  115       11.994165   0.000000
  116       11.994218   0.000000
  117       12.231538   0.000000
  118       12.231599   0.000000
  119       12.240559   0.000000
  120       12.240615   0.000000
  121       12.519688   0.000000
  122       12.519909   0.000000
  123       12.522161   0.000000
  124       12.522413   0.000000
  125       13.044937   0.000000
  126       13.044973   0.000000
  127       13.052148   0.000000
  128       13.052169   0.000000
  129       13.314873   0.000000
  130       13.314922   0.000000
  131       13.319760   0.000000
  132       13.319800   0.000000
  133       14.184415   0.000000
  134       14.184486   0.000000
  135       14.187848   0.000000
  136       14.187914   0.000000
  137       14.703046   0.000000
  138       14.703418   0.000000
  139       14.708015   0.000000
  140       14.708193   0.000000
  141       15.141976   0.000000
  142       15.144949   0.000000
  143       15.149132   0.000000
  144       15.157342   0.000000
 
  0.2800000E+00  0.5000000E+00  0.0000000E+00  0.4901961E-02
    1      -15.898357   1.000000
    2      -15.898260   1.000000
    3      -15.893948   1.000000
    4      -15.893850   1.000000
    5      -10.660262   1.000000
    6      -10.660174   1.000000
    7      -10.654378   1.000000
    8      -10.654289   1.000000
    9       -7.392738   1.000000
   10       -7.392613   1.000000
   11       -7.380870   1.000000
   12       -7.380745   1.000000
   13       -5.773580   1.000000
   14       -5.773573   1.000000
   15       -5.732972   1.000000
   16       -5.732964   1.000000
   17       -4.262346   1.000000
   18       -4.262231   1.000000
   19       -4.220622   1.000000
   20       -4.220509   1.000000
   21        0.016216   0.000000
   22        0.016318   0.000000
   23        0.106600   0.000000
   24        0.106705   0.000000
   25        0.850348   0.000000
   26        0.850424   0.000000
   27        0.921183   0.000000
   28        0.921257   0.000000
   29        2.191865   0.000000
   30        2.191942   0.000000
   31        2.239960   0.000000
   32        2.240049   0.000000
   33        3.349499   0.000000
   34        3.349652   0.000000
   35        3.356678   0.000000
   36        3.356834   0.000000
   37        4.120782   0.000000
   38        4.120874   0.000000
   39        4.131567   0.000000
   40        4.131663   0.000000
   41        4.590895   0.000000
   42        4.590920   0.000000
   43        4.592345   0.000000
   44        4.592396   0.000000
   45        4.767194   0.000000
   46        4.767348   0.000000
   47        4.769561   0.000000
   48        4.769710   0.000000
   49        5.398853   0.000000
   50        5.399203   0.000000
   51        5.399953   0.000000
   52        5.400303   0.000000
   53        5.853284   0.000000
   54        5.853386   0.000000
   55        5.855234   0.000000
   56        5.855331   0.000000
   57        6.312327   0.000000
   58        6.312415   0.000000
   59        6.319602   0.000000
   60        6.319691   0.000000
   61        6.977992   0.000000
   62        6.978271   0.000000
   63        6.989753   0.000000
   64        6.990028   0.000000
   65        7.405544   0.000000
   66        7.405910   0.000000
   67        7.413658   0.000000
   68        7.414032   0.000000
   69        7.626443   0.000000
   70        7.626542   0.000000
   71        7.637230   0.000000
   72        7.637343   0.000000
   73        8.588268   0.000000
   74        8.588425   0.000000
   75        8.605484   0.000000
   76        8.605633   0.000000
   77        8.841614   0.000000
   78        8.841660   0.000000
   79        8.850817   0.000000
   80        8.850867   0.000000
   81        9.281995   0.000000
   82        9.282233   0.000000
   83        9.292432   0.000000
   84        9.292693   0.000000
   85        9.599465   0.000000
   86        9.599630   0.000000
   87        9.605101   0.000000
   88        9.605255   0.000000
   89        9.733336   0.000000
   90        9.733719   0.000000
   91        9.738025   0.000000
   92        9.738389   0.000000
   93        9.919260   0.000000
   94        9.919649   0.000000
   95        9.920281   0.000000
   96        9.920689   0.000000
   97       10.295486   0.000000
   98       10.295754   0.000000
   99       10.313422   0.000000
  100       10.313687   0.000000
  101       10.857078   0.000000
  102       10.857302   0.000000
  103       10.859648   0.000000
  104       10.859874   0.000000
  105       11.114847   0.000000
  106       11.114924   0.000000
  107       11.120904   0.000000
  108       11.120979   0.000000
  109       11.265962   0.000000
  110       11.266022   0.000000
  111       11.279771   0.000000
  112       11.279826   0.000000
  113       12.053518   0.000000
  114       12.053579   0.000000
  115       12.056573   0.000000
  116       12.056606   0.000000
  117       12.205955   0.000000
  118       12.206096   0.000000
  119       12.212509   0.000000
  120       12.212643   0.000000
  121       12.594698   0.000000
  122       12.594858   0.000000
  123       12.596413   0.000000
  124       12.596607   0.000000
  125       13.060590   0.000000
  126       13.060626   0.000000
  127       13.066767   0.000000
  128       13.066780   0.000000
  129       13.302575   0.000000
  130       13.302617   0.000000
  131       13.306833   0.000000
  132       13.306870   0.000000
  133       14.242862   0.000000
  134       14.242933   0.000000
  135       14.246584   0.000000
  136       14.246651   0.000000
  137       14.784716   0.000000
  138       14.784828   0.000000
  139       14.789825   0.000000
  140       14.789902   0.000000
  141       15.183929   0.000000
  142       15.186504   0.000000
  143       15.192071   0.000000
  144       15.200953   0.000000
 
  0.2700000E+00  0.5000000E+00  0.0000000E+00  0.4901961E-02
    1      -15.923018   1.000000
    2      -15.922918   1.000000
    3      -15.918707   1.000000
    4      -15.918608   1.000000
    5      -10.657109   1.000000
    6      -10.657021   1.000000
    7      -10.651307   1.000000
    8      -10.651219   1.000000
    9       -7.341660   1.000000
   10       -7.341534   1.000000
   11       -7.329533   1.000000
   12       -7.329407   1.000000
   13       -5.742466   1.000000
   14       -5.742454   1.000000
   15       -5.702539   1.000000
   16       -5.702526   1.000000
   17       -4.228742   1.000000
   18       -4.228623   1.000000
   19       -4.188209   1.000000
   20       -4.188091   1.000000
   21       -0.009141   0.000000
   22       -0.009041   0.000000
   23        0.080278   0.000000
   24        0.080381   0.000000
   25        0.836041   0.000000
   26        0.836113   0.000000
   27        0.905706   0.000000
   28        0.905775   0.000000
   29        2.099250   0.000000
   30        2.099321   0.000000
   31        2.145698   0.000000
   32        2.145781   0.000000
   33        3.347964   0.000000
   34        3.348122   0.000000
   35        3.353944   0.000000
   36        3.354105   0.000000
   37        4.072973   0.000000
   38        4.073061   0.000000
   39        4.083741   0.000000
   40        4.083834   0.000000
   41        4.537288   0.000000
   42        4.537317   0.000000
   43        4.538707   0.000000
   44        4.538761   0.000000
   45        4.724182   0.000000
   46        4.724349   0.000000
   47        4.726773   0.000000
   48        4.726933   0.000000
   49        5.368467   0.000000
   50        5.368710   0.000000
   51        5.370352   0.000000
   52        5.370601   0.000000
   53        5.798948   0.000000
   54        5.799043   0.000000
   55        5.800744   0.000000
   56        5.800837   0.000000
   57        6.358390   0.000000
   58        6.358503   0.000000
   59        6.365414   0.000000
   60        6.365532   0.000000
   61        6.902489   0.000000
   62        6.902754   0.000000
   63        6.913806   0.000000
   64        6.914069   0.000000
   65        7.360049   0.000000
   66        7.360426   0.000000
   67        7.367755   0.000000
   68        7.368137   0.000000
   69        7.577193   0.000000
   70        7.577293   0.000000
   71        7.588991   0.000000
   72        7.589110   0.000000
   73        8.682914   0.000000
   74        8.683076   0.000000
   75        8.702600   0.000000
   76        8.702757   0.000000
   77        8.893648   0.000000
   78        8.893674   0.000000
   79        8.898888   0.000000
   80        8.898918   0.000000
   81        9.338661   0.000000
   82        9.338835   0.000000
   83        9.351597   0.000000
   84        9.351790   0.000000
   85        9.709287   0.000000
   86        9.709423   0.000000
   87        9.714236   0.000000
   88        9.714378   0.000000
   89        9.750295   0.000000
   90        9.750510   0.000000
   91        9.754085   0.000000
   92        9.754293   0.000000
   93       10.041407   0.000000
   94       10.041613   0.000000
   95       10.043597   0.000000
   96       10.043823   0.000000
   97       10.357182   0.000000
   98       10.357485   0.000000
   99       10.374601   0.000000
  100       10.374903   0.000000
  101       10.978836   0.000000
  102       10.979066   0.000000
  103       10.981972   0.000000
  104       10.982205   0.000000
  105       11.185299   0.000000
  106       11.185318   0.000000
  107       11.190453   0.000000
  108       11.190511   0.000000
  109       11.226404   0.000000
  110       11.226483   0.000000
  111       11.237938   0.000000
  112       11.238028   0.000000
  113       12.062040   0.000000
  114       12.062089   0.000000
  115       12.066582   0.000000
  116       12.066646   0.000000
  117       12.223904   0.000000
  118       12.224074   0.000000
  119       12.233388   0.000000
  120       12.233542   0.000000
  121       12.669726   0.000000
  122       12.669832   0.000000
  123       12.671314   0.000000
  124       12.671451   0.000000
  125       13.086601   0.000000
  126       13.086635   0.000000
  127       13.091681   0.000000
  128       13.091687   0.000000
  129       13.317685   0.000000
  130       13.317733   0.000000
  131       13.321555   0.000000
  132       13.321599   0.000000
  133       14.287271   0.000000
  134       14.287343   0.000000
  135       14.291149   0.000000
  136       14.291206   0.000000
  137       14.853920   0.000000
  138       14.854341   0.000000
  139       14.858344   0.000000
  140       14.858418   0.000000
  141       15.243664   0.000000
  142       15.246940   0.000000
  143       15.252166   0.000000
  144       15.263660   0.000000
 
  0.2600000E+00  0.5000000E+00  0.0000000E+00  0.4901961E-02
    1      -15.947499   1.000000
    2      -15.947398   1.000000
    3      -15.943295   1.000000
    4      -15.943194   1.000000
    5      -10.655486   1.000000
    6      -10.655398   1.000000
    7      -10.649783   1.000000
    8      -10.649695   1.000000
    9       -7.285221   1.000000
   10       -7.285094   1.000000
   11       -7.272830   1.000000
   12       -7.272703   1.000000
   13       -5.715567   1.000000
   14       -5.715552   1.000000
   15       -5.676480   1.000000
   16       -5.676463   1.000000
   17       -4.191711   1.000000
   18       -4.191588   1.000000
   19       -4.152584   1.000000
   20       -4.152463   1.000000
   21       -0.035345   0.000000
   22       -0.035249   0.000000
   23        0.052818   0.000000
   24        0.052917   0.000000
   25        0.820105   0.000000
   26        0.820171   0.000000
   27        0.888031   0.000000
   28        0.888093   0.000000
   29        2.004741   0.000000
   30        2.004805   0.000000
   31        2.049524   0.000000
   32        2.049601   0.000000
   33        3.345981   0.000000
   34        3.346139   0.000000
   35        3.350887   0.000000
   36        3.351049   0.000000
   37        4.028031   0.000000
   38        4.028116   0.000000
   39        4.038768   0.000000
   40        4.038858   0.000000
   41        4.484431   0.000000
   42        4.484461   0.000000
   43        4.485784   0.000000
   44        4.485839   0.000000
   45        4.685524   0.000000
   46        4.685698   0.000000
   47        4.688298   0.000000
   48        4.688465   0.000000
   49        5.337910   0.000000
   50        5.338124   0.000000
   51        5.340682   0.000000
   52        5.340907   0.000000
   53        5.747171   0.000000
   54        5.747258   0.000000
   55        5.748889   0.000000
   56        5.748976   0.000000
   57        6.404635   0.000000
   58        6.404774   0.000000
   59        6.411859   0.000000
   60        6.412005   0.000000
   61        6.824699   0.000000
   62        6.824950   0.000000
   63        6.835553   0.000000
   64        6.835804   0.000000
   65        7.322197   0.000000
   66        7.322590   0.000000
   67        7.329151   0.000000
   68        7.329545   0.000000
   69        7.533902   0.000000
   70        7.534007   0.000000
   71        7.547150   0.000000
   72        7.547277   0.000000
   73        8.758744   0.000000
   74        8.758902   0.000000
   75        8.780869   0.000000
   76        8.781027   0.000000
   77        8.933815   0.000000
   78        8.933838   0.000000
   79        8.936652   0.000000
   80        8.936666   0.000000
   81        9.413774   0.000000
   82        9.413912   0.000000
   83        9.429265   0.000000
   84        9.429412   0.000000
   85        9.687967   0.000000
   86        9.688103   0.000000
   87        9.692244   0.000000
   88        9.692366   0.000000
   89        9.886658   0.000000
   90        9.886797   0.000000
   91        9.892772   0.000000
   92        9.892898   0.000000
   93       10.176784   0.000000
   94       10.176918   0.000000
   95       10.179812   0.000000
   96       10.179980   0.000000
   97       10.414949   0.000000
   98       10.415283   0.000000
   99       10.429799   0.000000
  100       10.430134   0.000000
  101       11.076429   0.000000
  102       11.076626   0.000000
  103       11.079455   0.000000
  104       11.079670   0.000000
  105       11.150709   0.000000
  106       11.150753   0.000000
  107       11.165480   0.000000
  108       11.165515   0.000000
  109       11.324613   0.000000
  110       11.324639   0.000000
  111       11.328986   0.000000
  112       11.329007   0.000000
  113       12.038329   0.000000
  114       12.038369   0.000000
  115       12.044818   0.000000
  116       12.044872   0.000000
  117       12.272828   0.000000
  118       12.272929   0.000000
  119       12.284483   0.000000
  120       12.284564   0.000000
  121       12.733374   0.000000
  122       12.733451   0.000000
  123       12.735371   0.000000
  124       12.735469   0.000000
  125       13.127177   0.000000
  126       13.127209   0.000000
  127       13.131347   0.000000
  128       13.131355   0.000000
  129       13.361773   0.000000
  130       13.361832   0.000000
  131       13.365578   0.000000
  132       13.365634   0.000000
  133       14.312642   0.000000
  134       14.312706   0.000000
  135       14.316540   0.000000
  136       14.316593   0.000000
  137       14.916488   0.000000
  138       14.916612   0.000000
  139       14.919904   0.000000
  140       14.919951   0.000000
  141       15.316498   0.000000
  142       15.318922   0.000000
  143       15.324148   0.000000
  144       15.335530   0.000000
 
  0.2500000E+00  0.5000000E+00  0.0000000E+00  0.4901961E-02
    1      -15.971712   1.000000
    2      -15.971610   1.000000
    3      -15.967620   1.000000
    4      -15.967517   1.000000
    5      -10.655317   1.000000
    6      -10.655229   1.000000
    7      -10.649730   1.000000
    8      -10.649643   1.000000
    9       -7.223643   1.000000
   10       -7.223515   1.000000
   11       -7.210980   1.000000
   12       -7.210853   1.000000
   13       -5.692724   1.000000
   14       -5.692706   1.000000
   15       -5.654599   1.000000
   16       -5.654579   1.000000
   17       -4.151672   1.000000
   18       -4.151547   1.000000
   19       -4.114137   1.000000
   20       -4.114013   1.000000
   21       -0.062282   0.000000
   22       -0.062190   0.000000
   23        0.024328   0.000000
   24        0.024421   0.000000
   25        0.802162   0.000000
   26        0.802223   0.000000
   27        0.867732   0.000000
   28        0.867787   0.000000
   29        1.909463   0.000000
   30        1.909520   0.000000
   31        1.952610   0.000000
   32        1.952681   0.000000
   33        3.342843   0.000000
   34        3.342995   0.000000
   35        3.346842   0.000000
   36        3.346998   0.000000
   37        3.986086   0.000000
   38        3.986167   0.000000
   39        3.996752   0.000000
   40        3.996838   0.000000
   41        4.432620   0.000000
   42        4.432651   0.000000
   43        4.433890   0.000000
   44        4.433944   0.000000
   45        4.651152   0.000000
   46        4.651325   0.000000
   47        4.654075   0.000000
   48        4.654239   0.000000
   49        5.308026   0.000000
   50        5.308244   0.000000
   51        5.311616   0.000000
   52        5.311847   0.000000
   53        5.698304   0.000000
   54        5.698381   0.000000
   55        5.700020   0.000000
   56        5.700097   0.000000
   57        6.448010   0.000000
   58        6.448171   0.000000
   59        6.455910   0.000000
   60        6.456080   0.000000
   61        6.745564   0.000000
   62        6.745802   0.000000
   63        6.756050   0.000000
   64        6.756290   0.000000
   65        7.291288   0.000000
   66        7.291701   0.000000
   67        7.297279   0.000000
   68        7.297682   0.000000
   69        7.499286   0.000000
   70        7.499400   0.000000
   71        7.514398   0.000000
   72        7.514536   0.000000
   73        8.797132   0.000000
   74        8.797261   0.000000
   75        8.817634   0.000000
   76        8.817766   0.000000
   77        8.984395   0.000000
   78        8.984442   0.000000
   79        8.993092   0.000000
   80        8.993135   0.000000
   81        9.487891   0.000000
   82        9.488043   0.000000
   83        9.506550   0.000000
   84        9.506698   0.000000
   85        9.673630   0.000000
   86        9.673804   0.000000
   87        9.680283   0.000000
   88        9.680453   0.000000
   89       10.018928   0.000000
   90       10.019045   0.000000
   91       10.026494   0.000000
   92       10.026602   0.000000
   93       10.312184   0.000000
   94       10.312299   0.000000
   95       10.315800   0.000000
   96       10.315953   0.000000
   97       10.481673   0.000000
   98       10.482028   0.000000
   99       10.491895   0.000000
  100       10.492258   0.000000
  101       11.036835   0.000000
  102       11.036869   0.000000
  103       11.048547   0.000000
  104       11.048607   0.000000
  105       11.243502   0.000000
  106       11.243619   0.000000
  107       11.253153   0.000000
  108       11.253266   0.000000
  109       11.441942   0.000000
  110       11.441967   0.000000
  111       11.445705   0.000000
  112       11.445719   0.000000
  113       12.016721   0.000000
  114       12.016743   0.000000
  115       12.023034   0.000000
  116       12.023067   0.000000
  117       12.320846   0.000000
  118       12.320897   0.000000
  119       12.332743   0.000000
  120       12.332770   0.000000
  121       12.785272   0.000000
  122       12.785331   0.000000
  123       12.787951   0.000000
  124       12.788025   0.000000
  125       13.184413   0.000000
  126       13.184447   0.000000
  127       13.188010   0.000000
  128       13.188030   0.000000
  129       13.432211   0.000000
  130       13.432275   0.000000
  131       13.436069   0.000000
  132       13.436132   0.000000
  133       14.318608   0.000000
  134       14.318636   0.000000
  135       14.322553   0.000000
  136       14.322596   0.000000
  137       14.977758   0.000000
  138       14.979948   0.000000
  139       14.980148   0.000000
  140       14.980865   0.000000
  141       15.389334   0.000000
  142       15.393121   0.000000
  143       15.397560   0.000000
  144       15.436586   0.000000
 
  0.2400000E+00  0.5000000E+00  0.0000000E+00  0.4901961E-02
    1      -15.995573   1.000000
    2      -15.995469   1.000000
    3      -15.991598   1.000000
    4      -15.991494   1.000000
    5      -10.656507   1.000000
    6      -10.656420   1.000000
    7      -10.651053   1.000000
    8      -10.650966   1.000000
    9       -7.157188   1.000000
   10       -7.157060   1.000000
   11       -7.144245   1.000000
   12       -7.144117   1.000000
   13       -5.673696   1.000000
   14       -5.673674   1.000000
   15       -5.636613   1.000000
   16       -5.636590   1.000000
   17       -4.109154   1.000000
   18       -4.109027   1.000000
   19       -4.073358   1.000000
   20       -4.073232   1.000000
   21       -0.089904   0.000000
   22       -0.089817   0.000000
   23       -0.005166   0.000000
   24       -0.005079   0.000000
   25        0.781881   0.000000
   26        0.781935   0.000000
   27        0.844419   0.000000
   28        0.844465   0.000000
   29        1.814535   0.000000
   30        1.814586   0.000000
   31        1.856165   0.000000
   32        1.856229   0.000000
   33        3.337948   0.000000
   34        3.338083   0.000000
   35        3.341246   0.000000
   36        3.341387   0.000000
   37        3.947174   0.000000
   38        3.947250   0.000000
   39        3.957704   0.000000
   40        3.957786   0.000000
   41        4.382097   0.000000
   42        4.382129   0.000000
   43        4.383276   0.000000
   44        4.383329   0.000000
   45        4.620922   0.000000
   46        4.621082   0.000000
   47        4.623972   0.000000
   48        4.624125   0.000000
   49        5.279390   0.000000
   50        5.279623   0.000000
   51        5.283683   0.000000
   52        5.283930   0.000000
   53        5.652720   0.000000
   54        5.652784   0.000000
   55        5.654520   0.000000
   56        5.654583   0.000000
   57        6.485640   0.000000
   58        6.485814   0.000000
   59        6.494740   0.000000
   60        6.494928   0.000000
   61        6.666103   0.000000
   62        6.666330   0.000000
   63        6.676507   0.000000
   64        6.676741   0.000000
   65        7.264726   0.000000
   66        7.265158   0.000000
   67        7.269926   0.000000
   68        7.270331   0.000000
   69        7.477358   0.000000
   70        7.477482   0.000000
   71        7.494435   0.000000
   72        7.494581   0.000000
   73        8.799962   0.000000
   74        8.800063   0.000000
   75        8.816356   0.000000
   76        8.816460   0.000000
   77        9.050956   0.000000
   78        9.051034   0.000000
   79        9.064162   0.000000
   80        9.064238   0.000000
   81        9.522738   0.000000
   82        9.522892   0.000000
   83        9.540296   0.000000
   84        9.540429   0.000000
   85        9.704734   0.000000
   86        9.704909   0.000000
   87        9.714687   0.000000
   88        9.714849   0.000000
   89       10.136162   0.000000
   90       10.136255   0.000000
   91       10.144535   0.000000
   92       10.144621   0.000000
   93       10.442337   0.000000
   94       10.442441   0.000000
   95       10.445668   0.000000
   96       10.445798   0.000000
   97       10.574137   0.000000
   98       10.574472   0.000000
   99       10.579398   0.000000
  100       10.579749   0.000000
  101       10.968323   0.000000
  102       10.968345   0.000000
  103       10.982696   0.000000
  104       10.982737   0.000000
  105       11.363879   0.000000
  106       11.364025   0.000000
  107       11.373850   0.000000
  108       11.373996   0.000000
  109       11.568586   0.000000
  110       11.568602   0.000000
  111       11.572466   0.000000
  112       11.572490   0.000000
  113       12.002928   0.000000
  114       12.002939   0.000000
  115       12.008390   0.000000
  116       12.008407   0.000000
  117       12.360825   0.000000
  118       12.360830   0.000000
  119       12.371853   0.000000
  120       12.371877   0.000000
  121       12.830966   0.000000
  122       12.831030   0.000000
  123       12.834434   0.000000
  124       12.834504   0.000000
  125       13.256880   0.000000
  126       13.256926   0.000000
  127       13.260227   0.000000
  128       13.260265   0.000000
  129       13.522424   0.000000
  130       13.522481   0.000000
  131       13.526302   0.000000
  132       13.526362   0.000000
  133       14.309944   0.000000
  134       14.309994   0.000000
  135       14.314149   0.000000
  136       14.314220   0.000000
  137       15.036190   0.000000
  138       15.036574   0.000000
  139       15.039353   0.000000
  140       15.039962   0.000000
  141       15.451755   0.000000
  142       15.456028   0.000000
  143       15.461620   0.000000
  144       15.498075   0.000000
 
  0.2300000E+00  0.5000000E+00  0.0000000E+00  0.4901961E-02
    1      -16.019001   1.000000
    2      -16.018895   1.000000
    3      -16.015151   1.000000
    4      -16.015045   1.000000
    5      -10.658941   1.000000
    6      -10.658854   1.000000
    7      -10.653633   1.000000
    8      -10.653547   1.000000
    9       -7.086151   1.000000
   10       -7.086023   1.000000
   11       -7.072914   1.000000
   12       -7.072786   1.000000
   13       -5.658177   1.000000
   14       -5.658152   1.000000
   15       -5.622170   1.000000
   16       -5.622144   1.000000
   17       -4.064773   1.000000
   18       -4.064645   1.000000
   19       -4.030822   1.000000
   20       -4.030694   1.000000
   21       -0.118229   0.000000
   22       -0.118149   0.000000
   23       -0.035720   0.000000
   24       -0.035640   0.000000
   25        0.759004   0.000000
   26        0.759049   0.000000
   27        0.817772   0.000000
   28        0.817808   0.000000
   29        1.721057   0.000000
   30        1.721104   0.000000
   31        1.761443   0.000000
   32        1.761503   0.000000
   33        3.330862   0.000000
   34        3.330969   0.000000
   35        3.333690   0.000000
   36        3.333804   0.000000
   37        3.911236   0.000000
   38        3.911307   0.000000
   39        3.921545   0.000000
   40        3.921622   0.000000
   41        4.333056   0.000000
   42        4.333087   0.000000
   43        4.334143   0.000000
   44        4.334195   0.000000
   45        4.594608   0.000000
   46        4.594743   0.000000
   47        4.597783   0.000000
   48        4.597914   0.000000
   49        5.252368   0.000000
   50        5.252619   0.000000
   51        5.257224   0.000000
   52        5.257490   0.000000
   53        5.610859   0.000000
   54        5.610911   0.000000
   55        5.612849   0.000000
   56        5.612893   0.000000
   57        6.513968   0.000000
   58        6.514122   0.000000
   59        6.525628   0.000000
   60        6.525805   0.000000
   61        6.587897   0.000000
   62        6.588127   0.000000
   63        6.599316   0.000000
   64        6.599563   0.000000
   65        7.238832   0.000000
   66        7.239276   0.000000
   67        7.243700   0.000000
   68        7.244103   0.000000
   69        7.472698   0.000000
   70        7.472818   0.000000
   71        7.491159   0.000000
   72        7.491299   0.000000
   73        8.784611   0.000000
   74        8.784694   0.000000
   75        8.797929   0.000000
   76        8.798018   0.000000
   77        9.113228   0.000000
   78        9.113325   0.000000
   79        9.129892   0.000000
   80        9.129987   0.000000
   81        9.511552   0.000000
   82        9.511677   0.000000
   83        9.525711   0.000000
   84        9.525810   0.000000
   85        9.781865   0.000000
   86        9.782022   0.000000
   87        9.795160   0.000000
   88        9.795303   0.000000
   89       10.238059   0.000000
   90       10.238126   0.000000
   91       10.245379   0.000000
   92       10.245437   0.000000
   93       10.573678   0.000000
   94       10.573760   0.000000
   95       10.575666   0.000000
   96       10.575756   0.000000
   97       10.689599   0.000000
   98       10.689884   0.000000
   99       10.692528   0.000000
  100       10.692830   0.000000
  101       10.904884   0.000000
  102       10.904933   0.000000
  103       10.920564   0.000000
  104       10.920630   0.000000
  105       11.483281   0.000000
  106       11.483449   0.000000
  107       11.494272   0.000000
  108       11.494441   0.000000
  109       11.701623   0.000000
  110       11.701632   0.000000
  111       11.706061   0.000000
  112       11.706097   0.000000
  113       11.995928   0.000000
  114       11.995960   0.000000
  115       12.000133   0.000000
  116       12.000164   0.000000
  117       12.394882   0.000000
  118       12.394922   0.000000
  119       12.404190   0.000000
  120       12.404259   0.000000
  121       12.877012   0.000000
  122       12.877094   0.000000
  123       12.881492   0.000000
  124       12.881575   0.000000
  125       13.339884   0.000000
  126       13.339949   0.000000
  127       13.343296   0.000000
  128       13.343360   0.000000
  129       13.624352   0.000000
  130       13.624393   0.000000
  131       13.628252   0.000000
  132       13.628297   0.000000
  133       14.295304   0.000000
  134       14.295331   0.000000
  135       14.300178   0.000000
  136       14.300222   0.000000
  137       15.086427   0.000000
  138       15.086939   0.000000
  139       15.089174   0.000000
  140       15.089823   0.000000
  141       15.486544   0.000000
  142       15.492293   0.000000
  143       15.514892   0.000000
  144       15.545297   0.000000
 
  0.2200000E+00  0.5000000E+00  0.0000000E+00  0.4901961E-02
    1      -16.041922   1.000000
    2      -16.041815   1.000000
    3      -16.038202   1.000000
    4      -16.038095   1.000000
    5      -10.662491   1.000000
    6      -10.662404   1.000000
    7      -10.657344   1.000000
    8      -10.657258   1.000000
    9       -7.010857   1.000000
   10       -7.010730   1.000000
   11       -6.997306   1.000000
   12       -6.997178   1.000000
   13       -5.645817   1.000000
   14       -5.645790   1.000000
   15       -5.610874   1.000000
   16       -5.610846   1.000000
   17       -4.019209   1.000000
   18       -4.019080   1.000000
   19       -3.987166   1.000000
   20       -3.987038   1.000000
   21       -0.147361   0.000000
   22       -0.147288   0.000000
   23       -0.067479   0.000000
   24       -0.067408   0.000000
   25        0.733363   0.000000
   26        0.733399   0.000000
   27        0.787579   0.000000
   28        0.787604   0.000000
   29        1.630079   0.000000
   30        1.630124   0.000000
   31        1.669724   0.000000
   32        1.669779   0.000000
   33        3.321344   0.000000
   34        3.321414   0.000000
   35        3.323913   0.000000
   36        3.323992   0.000000
   37        3.878107   0.000000
   38        3.878171   0.000000
   39        3.888098   0.000000
   40        3.888169   0.000000
   41        4.285649   0.000000
   42        4.285679   0.000000
   43        4.286647   0.000000
   44        4.286698   0.000000
   45        4.571872   0.000000
   46        4.571974   0.000000
   47        4.575185   0.000000
   48        4.575294   0.000000
   49        5.227112   0.000000
   50        5.227381   0.000000
   51        5.232368   0.000000
   52        5.232652   0.000000
   53        5.573245   0.000000
   54        5.573292   0.000000
   55        5.575544   0.000000
   56        5.575573   0.000000
   57        6.502246   0.000000
   58        6.502372   0.000000
   59        6.508283   0.000000
   60        6.508379   0.000000
   61        6.551803   0.000000
   62        6.552078   0.000000
   63        6.554214   0.000000
   64        6.554483   0.000000
   65        7.211069   0.000000
   66        7.211510   0.000000
   67        7.215754   0.000000
   68        7.216149   0.000000
   69        7.487908   0.000000
   70        7.488009   0.000000
   71        7.506631   0.000000
   72        7.506750   0.000000
   73        8.761387   0.000000
   74        8.761461   0.000000
   75        8.772699   0.000000
   76        8.772779   0.000000
   77        9.157018   0.000000
   78        9.157126   0.000000
   79        9.176397   0.000000
   80        9.176501   0.000000
   81        9.483359   0.000000
   82        9.483468   0.000000
   83        9.496176   0.000000
   84        9.496260   0.000000
   85        9.872525   0.000000
   86        9.872674   0.000000
   87        9.887673   0.000000
   88        9.887814   0.000000
   89       10.336277   0.000000
   90       10.336321   0.000000
   91       10.341234   0.000000
   92       10.341271   0.000000
   93       10.713114   0.000000
   94       10.713156   0.000000
   95       10.713848   0.000000
   96       10.713889   0.000000
   97       10.764161   0.000000
   98       10.764289   0.000000
   99       10.771425   0.000000
  100       10.771550   0.000000
  101       10.904141   0.000000
  102       10.904162   0.000000
  103       10.914418   0.000000
  104       10.914465   0.000000
  105       11.596900   0.000000
  106       11.597098   0.000000
  107       11.608857   0.000000
  108       11.609057   0.000000
  109       11.836578   0.000000
  110       11.836595   0.000000
  111       11.842348   0.000000
  112       11.842380   0.000000
  113       11.995451   0.000000
  114       11.995536   0.000000
  115       11.997768   0.000000
  116       11.997850   0.000000
  117       12.428786   0.000000
  118       12.428872   0.000000
  119       12.435801   0.000000
  120       12.435914   0.000000
  121       12.927807   0.000000
  122       12.927904   0.000000
  123       12.933652   0.000000
  124       12.933750   0.000000
  125       13.426107   0.000000
  126       13.426201   0.000000
  127       13.429958   0.000000
  128       13.430057   0.000000
  129       13.730414   0.000000
  130       13.730486   0.000000
  131       13.734356   0.000000
  132       13.734421   0.000000
  133       14.285857   0.000000
  134       14.285921   0.000000
  135       14.291892   0.000000
  136       14.291915   0.000000
  137       15.120313   0.000000
  138       15.122064   0.000000
  139       15.125722   0.000000
  140       15.128956   0.000000
  141       15.492069   0.000000
  142       15.497091   0.000000
  143       15.542338   0.000000
  144       15.632294   0.000000
 
  0.2100000E+00  0.5000000E+00  0.0000000E+00  0.4901961E-02
    1      -16.064264   1.000000
    2      -16.064156   1.000000
    3      -16.060679   1.000000
    4      -16.060571   1.000000
    5      -10.667021   1.000000
    6      -10.666934   1.000000
    7      -10.662046   1.000000
    8      -10.661960   1.000000
    9       -6.931664   1.000000
   10       -6.931537   1.000000
   11       -6.917769   1.000000
   12       -6.917642   1.000000
   13       -5.636242   1.000000
   14       -5.636213   1.000000
   15       -5.602304   1.000000
   16       -5.602275   1.000000
   17       -3.973183   1.000000
   18       -3.973054   1.000000
   19       -3.943071   1.000000
   20       -3.942943   1.000000
   21       -0.177481   0.000000
   22       -0.177417   0.000000
   23       -0.100675   0.000000
   24       -0.100614   0.000000
   25        0.704933   0.000000
   26        0.704959   0.000000
   27        0.753819   0.000000
   28        0.753834   0.000000
   29        1.542566   0.000000
   30        1.542611   0.000000
   31        1.582248   0.000000
   32        1.582301   0.000000
   33        3.309376   0.000000
   34        3.309416   0.000000
   35        3.311834   0.000000
   36        3.311883   0.000000
   37        3.847538   0.000000
   38        3.847596   0.000000
   39        3.857113   0.000000
   40        3.857179   0.000000
   41        4.239995   0.000000
   42        4.240024   0.000000
   43        4.240909   0.000000
   44        4.240958   0.000000
   45        4.552276   0.000000
   46        4.552351   0.000000
   47        4.555750   0.000000
   48        4.555852   0.000000
   49        5.203560   0.000000
   50        5.203844   0.000000
   51        5.209026   0.000000
   52        5.209325   0.000000
   53        5.540506   0.000000
   54        5.540554   0.000000
   55        5.543238   0.000000
   56        5.543262   0.000000
   57        6.429266   0.000000
   58        6.429449   0.000000
   59        6.435828   0.000000
   60        6.435993   0.000000
   61        6.561010   0.000000
   62        6.561233   0.000000
   63        6.567686   0.000000
   64        6.567899   0.000000
   65        7.181093   0.000000
   66        7.181518   0.000000
   67        7.185458   0.000000
   68        7.185834   0.000000
   69        7.521868   0.000000
   70        7.521948   0.000000
   71        7.539806   0.000000
   72        7.539900   0.000000
   73        8.735014   0.000000
   74        8.735080   0.000000
   75        8.744972   0.000000
   76        8.745045   0.000000
   77        9.175018   0.000000
   78        9.175132   0.000000
   79        9.196484   0.000000
   80        9.196592   0.000000
   81        9.450288   0.000000
   82        9.450388   0.000000
   83        9.462457   0.000000
   84        9.462533   0.000000
   85        9.967933   0.000000
   86        9.968072   0.000000
   87        9.983084   0.000000
   88        9.983218   0.000000
   89       10.442513   0.000000
   90       10.442538   0.000000
   91       10.445641   0.000000
   92       10.445667   0.000000
   93       10.712640   0.000000
   94       10.712718   0.000000
   95       10.726745   0.000000
   96       10.726817   0.000000
   97       10.876007   0.000000
   98       10.876091   0.000000
   99       10.877347   0.000000
  100       10.877424   0.000000
  101       11.025046   0.000000
  102       11.025198   0.000000
  103       11.030970   0.000000
  104       11.031073   0.000000
  105       11.699954   0.000000
  106       11.700196   0.000000
  107       11.712299   0.000000
  108       11.712545   0.000000
  109       11.945261   0.000000
  110       11.945345   0.000000
  111       11.953655   0.000000
  112       11.953736   0.000000
  113       12.025075   0.000000
  114       12.025209   0.000000
  115       12.026421   0.000000
  116       12.026538   0.000000
  117       12.469992   0.000000
  118       12.470129   0.000000
  119       12.474615   0.000000
  120       12.474776   0.000000
  121       12.984800   0.000000
  122       12.984909   0.000000
  123       12.992288   0.000000
  124       12.992399   0.000000
  125       13.505673   0.000000
  126       13.505801   0.000000
  127       13.510391   0.000000
  128       13.510529   0.000000
  129       13.835012   0.000000
  130       13.835181   0.000000
  131       13.838845   0.000000
  132       13.839001   0.000000
  133       14.294698   0.000000
  134       14.294749   0.000000
  135       14.301869   0.000000
  136       14.301925   0.000000
  137       15.131784   0.000000
  138       15.132649   0.000000
  139       15.136213   0.000000
  140       15.137689   0.000000
  141       15.474055   0.000000
  142       15.480766   0.000000
  143       15.483484   0.000000
  144       15.497715   0.000000
 
  0.2000000E+00  0.5000000E+00  0.0000000E+00  0.4901961E-02
    1      -16.085959   1.000000
    2      -16.085851   1.000000
    3      -16.082514   1.000000
    4      -16.082406   1.000000
    5      -10.672388   1.000000
    6      -10.672302   1.000000
    7      -10.667597   1.000000
    8      -10.667511   1.000000
    9       -6.848953   1.000000
   10       -6.848827   1.000000
   11       -6.834676   1.000000
   12       -6.834550   1.000000
   13       -5.629059   1.000000
   14       -5.629029   1.000000
   15       -5.596029   1.000000
   16       -5.595999   1.000000
   17       -3.927438   1.000000
   18       -3.927311   1.000000
   19       -3.899240   1.000000
   20       -3.899113   1.000000
   21       -0.208867   0.000000
   22       -0.208814   0.000000
   23       -0.135624   0.000000
   24       -0.135575   0.000000
   25        0.673865   0.000000
   26        0.673881   0.000000
   27        0.716741   0.000000
   28        0.716755   0.000000
   29        1.459360   0.000000
   30        1.459407   0.000000
   31        1.500098   0.000000
   32        1.500151   0.000000
   33        3.295121   0.000000
   34        3.295154   0.000000
   35        3.297539   0.000000
   36        3.297576   0.000000
   37        3.819220   0.000000
   38        3.819271   0.000000
   39        3.828292   0.000000
   40        3.828351   0.000000
   41        4.196186   0.000000
   42        4.196214   0.000000
   43        4.197021   0.000000
   44        4.197069   0.000000
   45        4.535280   0.000000
   46        4.535368   0.000000
   47        4.538944   0.000000
   48        4.539070   0.000000
   49        5.181429   0.000000
   50        5.181724   0.000000
   51        5.186900   0.000000
   52        5.187208   0.000000
   53        5.513338   0.000000
   54        5.513391   0.000000
   55        5.516621   0.000000
   56        5.516649   0.000000
   57        6.354785   0.000000
   58        6.354965   0.000000
   59        6.361659   0.000000
   60        6.361827   0.000000
   61        6.568764   0.000000
   62        6.568952   0.000000
   63        6.576722   0.000000
   64        6.576906   0.000000
   65        7.149833   0.000000
   66        7.150237   0.000000
   67        7.153787   0.000000
   68        7.154143   0.000000
   69        7.570870   0.000000
   70        7.570939   0.000000
   71        7.587359   0.000000
   72        7.587437   0.000000
   73        8.708049   0.000000
   74        8.708107   0.000000
   75        8.717028   0.000000
   76        8.717093   0.000000
   77        9.166327   0.000000
   78        9.166440   0.000000
   79        9.189440   0.000000
   80        9.189548   0.000000
   81        9.415726   0.000000
   82        9.415818   0.000000
   83        9.426879   0.000000
   84        9.426950   0.000000
   85       10.068668   0.000000
   86       10.068792   0.000000
   87       10.082789   0.000000
   88       10.082912   0.000000
   89       10.551778   0.000000
   90       10.551813   0.000000
   91       10.554628   0.000000
   92       10.554648   0.000000
   93       10.659989   0.000000
   94       10.660015   0.000000
   95       10.675271   0.000000
   96       10.675293   0.000000
   97       11.038587   0.000000
   98       11.038660   0.000000
   99       11.039894   0.000000
  100       11.039956   0.000000
  101       11.172166   0.000000
  102       11.172338   0.000000
  103       11.178251   0.000000
  104       11.178377   0.000000
  105       11.787523   0.000000
  106       11.787825   0.000000
  107       11.798877   0.000000
  108       11.799189   0.000000
  109       11.966362   0.000000
  110       11.966392   0.000000
  111       11.971673   0.000000
  112       11.971712   0.000000
  113       12.147860   0.000000
  114       12.147905   0.000000
  115       12.149610   0.000000
  116       12.149691   0.000000
  117       12.525951   0.000000
  118       12.526143   0.000000
  119       12.528768   0.000000
  120       12.528976   0.000000
  121       13.046533   0.000000
  122       13.046654   0.000000
  123       13.055737   0.000000
  124       13.055861   0.000000
  125       13.567679   0.000000
  126       13.567833   0.000000
  127       13.573618   0.000000
  128       13.573784   0.000000
  129       13.937262   0.000000
  130       13.937553   0.000000
  131       13.940629   0.000000
  132       13.940893   0.000000
  133       14.332650   0.000000
  134       14.332761   0.000000
  135       14.340392   0.000000
  136       14.340507   0.000000
  137       15.119771   0.000000
  138       15.123104   0.000000
  139       15.125033   0.000000
  140       15.129220   0.000000
  141       15.450400   0.000000
  142       15.452163   0.000000
  143       15.477965   0.000000
  144       15.649436   0.000000
 
  0.1900000E+00  0.5000000E+00  0.0000000E+00  0.4901961E-02
    1      -16.106948   1.000000
    2      -16.106838   1.000000
    3      -16.103648   1.000000
    4      -16.103538   1.000000
    5      -10.678450   1.000000
    6      -10.678364   1.000000
    7      -10.673853   1.000000
    8      -10.673767   1.000000
    9       -6.763151   1.000000
   10       -6.763027   1.000000
   11       -6.748435   1.000000
   12       -6.748310   1.000000
   13       -5.623882   1.000000
   14       -5.623851   1.000000
   15       -5.591620   1.000000
   16       -5.591589   1.000000
   17       -3.882733   1.000000
   18       -3.882607   1.000000
   19       -3.856392   1.000000
   20       -3.856266   1.000000
   21       -0.241877   0.000000
   22       -0.241836   0.000000
   23       -0.172697   0.000000
   24       -0.172661   0.000000
   25        0.640526   0.000000
   26        0.640539   0.000000
   27        0.676982   0.000000
   28        0.677010   0.000000
   29        1.381147   0.000000
   30        1.381196   0.000000
   31        1.424048   0.000000
   32        1.424103   0.000000
   33        3.278893   0.000000
   34        3.278937   0.000000
   35        3.281281   0.000000
   36        3.281324   0.000000
   37        3.792830   0.000000
   38        3.792873   0.000000
   39        3.801328   0.000000
   40        3.801380   0.000000
   41        4.154295   0.000000
   42        4.154322   0.000000
   43        4.155058   0.000000
   44        4.155104   0.000000
   45        4.520325   0.000000
   46        4.520456   0.000000
   47        4.524192   0.000000
   48        4.524362   0.000000
   49        5.160268   0.000000
   50        5.160567   0.000000
   51        5.165539   0.000000
   52        5.165850   0.000000
   53        5.492426   0.000000
   54        5.492482   0.000000
   55        5.496352   0.000000
   56        5.496385   0.000000
   57        6.282218   0.000000
   58        6.282393   0.000000
   59        6.289118   0.000000
   60        6.289283   0.000000
   61        6.572504   0.000000
   62        6.572652   0.000000
   63        6.581108   0.000000
   64        6.581255   0.000000
   65        7.118434   0.000000
   66        7.118820   0.000000
   67        7.121994   0.000000
   68        7.122334   0.000000
   69        7.630315   0.000000
   70        7.630386   0.000000
   71        7.644990   0.000000
   72        7.645064   0.000000
   73        8.682213   0.000000
   74        8.682264   0.000000
   75        8.690426   0.000000
   76        8.690483   0.000000
   77        9.135124   0.000000
   78        9.135235   0.000000
   79        9.159543   0.000000
   80        9.159649   0.000000
   81        9.381074   0.000000
   82        9.381159   0.000000
   83        9.390612   0.000000
   84        9.390677   0.000000
   85       10.172568   0.000000
   86       10.172680   0.000000
   87       10.185325   0.000000
   88       10.185436   0.000000
   89       10.562364   0.000000
   90       10.562452   0.000000
   91       10.575509   0.000000
   92       10.575589   0.000000
   93       10.720881   0.000000
   94       10.720923   0.000000
   95       10.726161   0.000000
   96       10.726212   0.000000
   97       11.206989   0.000000
   98       11.207061   0.000000
   99       11.208792   0.000000
  100       11.208849   0.000000
  101       11.321208   0.000000
  102       11.321393   0.000000
  103       11.328204   0.000000
  104       11.328347   0.000000
  105       11.856271   0.000000
  106       11.856660   0.000000
  107       11.864082   0.000000
  108       11.864484   0.000000
  109       11.968425   0.000000
  110       11.968492   0.000000
  111       11.973397   0.000000
  112       11.973458   0.000000
  113       12.292627   0.000000
  114       12.292647   0.000000
  115       12.295212   0.000000
  116       12.295257   0.000000
  117       12.601587   0.000000
  118       12.601784   0.000000
  119       12.603689   0.000000
  120       12.603893   0.000000
  121       13.108503   0.000000
  122       13.108637   0.000000
  123       13.119203   0.000000
  124       13.119342   0.000000
  125       13.607467   0.000000
  126       13.607629   0.000000
  127       13.614650   0.000000
  128       13.614827   0.000000
  129       14.041739   0.000000
  130       14.042097   0.000000
  131       14.044553   0.000000
  132       14.044885   0.000000
  133       14.399533   0.000000
  134       14.399663   0.000000
  135       14.407311   0.000000
  136       14.407388   0.000000
  137       15.087663   0.000000
  138       15.089435   0.000000
  139       15.094429   0.000000
  140       15.102659   0.000000
  141       15.429192   0.000000
  142       15.437696   0.000000
  143       15.458820   0.000000
  144       15.576043   0.000000
 
  0.1800000E+00  0.5000000E+00  0.0000000E+00  0.4901961E-02
    1      -16.127171   1.000000
    2      -16.127060   1.000000
    3      -16.124020   1.000000
    4      -16.123909   1.000000
    5      -10.685065   1.000000
    6      -10.684979   1.000000
    7      -10.680670   1.000000
    8      -10.680584   1.000000
    9       -6.674721   1.000000
   10       -6.674598   1.000000
   11       -6.659485   1.000000
   12       -6.659362   1.000000
   13       -5.620322   1.000000
   14       -5.620291   1.000000
   15       -5.588648   1.000000
   16       -5.588617   1.000000
   17       -3.839816   1.000000
   18       -3.839692   1.000000
   19       -3.815239   1.000000
   20       -3.815115   1.000000
   21       -0.276926   0.000000
   22       -0.276898   0.000000
   23       -0.212272   0.000000
   24       -0.212250   0.000000
   25        0.605491   0.000000
   26        0.605516   0.000000
   27        0.635676   0.000000
   28        0.635722   0.000000
   29        1.308421   0.000000
   30        1.308474   0.000000
   31        1.354453   0.000000
   32        1.354513   0.000000
   33        3.261099   0.000000
   34        3.261155   0.000000
   35        3.263435   0.000000
   36        3.263487   0.000000
   37        3.768068   0.000000
   38        3.768104   0.000000
   39        3.775947   0.000000
   40        3.775992   0.000000
   41        4.114380   0.000000
   42        4.114406   0.000000
   43        4.115074   0.000000
   44        4.115119   0.000000
   45        4.506867   0.000000
   46        4.507047   0.000000
   47        4.510924   0.000000
   48        4.511142   0.000000
   49        5.139559   0.000000
   50        5.139854   0.000000
   51        5.144457   0.000000
   52        5.144765   0.000000
   53        5.478305   0.000000
   54        5.478360   0.000000
   55        5.482913   0.000000
   56        5.482948   0.000000
   57        6.212005   0.000000
   58        6.212175   0.000000
   59        6.218845   0.000000
   60        6.219007   0.000000
   61        6.573471   0.000000
   62        6.573578   0.000000
   63        6.582517   0.000000
   64        6.582623   0.000000
   65        7.087851   0.000000
   66        7.088224   0.000000
   67        7.091087   0.000000
   68        7.091417   0.000000
   69        7.695610   0.000000
   70        7.695690   0.000000
   71        7.708241   0.000000
   72        7.708320   0.000000
   73        8.658996   0.000000
   74        8.659036   0.000000
   75        8.666570   0.000000
   76        8.666617   0.000000
   77        9.087794   0.000000
   78        9.087901   0.000000
   79        9.113004   0.000000
   80        9.113107   0.000000
   81        9.347321   0.000000
   82        9.347400   0.000000
   83        9.355030   0.000000
   84        9.355089   0.000000
   85       10.264329   0.000000
   86       10.264419   0.000000
   87       10.275152   0.000000
   88       10.275240   0.000000
   89       10.526896   0.000000
   90       10.526965   0.000000
   91       10.541362   0.000000
   92       10.541427   0.000000
   93       10.858865   0.000000
   94       10.858911   0.000000
   95       10.862289   0.000000
   96       10.862345   0.000000
   97       11.376634   0.000000
   98       11.376728   0.000000
   99       11.379948   0.000000
  100       11.380018   0.000000
  101       11.464840   0.000000
  102       11.465039   0.000000
  103       11.472734   0.000000
  104       11.472902   0.000000
  105       11.902578   0.000000
  106       11.903006   0.000000
  107       11.903797   0.000000
  108       11.904214   0.000000
  109       11.979364   0.000000
  110       11.979503   0.000000
  111       11.986417   0.000000
  112       11.986523   0.000000
  113       12.441357   0.000000
  114       12.441381   0.000000
  115       12.444079   0.000000
  116       12.444097   0.000000
  117       12.696879   0.000000
  118       12.697050   0.000000
  119       12.698814   0.000000
  120       12.698983   0.000000
  121       13.163159   0.000000
  122       13.163300   0.000000
  123       13.174597   0.000000
  124       13.174744   0.000000
  125       13.634905   0.000000
  126       13.635066   0.000000
  127       13.642791   0.000000
  128       13.642968   0.000000
  129       14.151947   0.000000
  130       14.152297   0.000000
  131       14.154622   0.000000
  132       14.154938   0.000000
  133       14.482213   0.000000
  134       14.482312   0.000000
  135       14.489507   0.000000
  136       14.489627   0.000000
  137       15.046130   0.000000
  138       15.046350   0.000000
  139       15.052742   0.000000
  140       15.053932   0.000000
  141       15.417258   0.000000
  142       15.423743   0.000000
  143       15.449203   0.000000
  144       15.481039   0.000000
 
  0.1700000E+00  0.5000000E+00  0.0000000E+00  0.4901961E-02
    1      -16.146576   1.000000
    2      -16.146465   1.000000
    3      -16.143579   1.000000
    4      -16.143467   1.000000
    5      -10.692096   1.000000
    6      -10.692010   1.000000
    7      -10.687912   1.000000
    8      -10.687826   1.000000
    9       -6.584184   1.000000
   10       -6.584065   1.000000
   11       -6.568317   1.000000
   12       -6.568196   1.000000
   13       -5.617993   1.000000
   14       -5.617962   1.000000
   15       -5.586684   1.000000
   16       -5.586652   1.000000
   17       -3.799424   1.000000
   18       -3.799302   1.000000
   19       -3.776477   1.000000
   20       -3.776355   1.000000
   21       -0.314457   0.000000
   22       -0.314444   0.000000
   23       -0.254680   0.000000
   24       -0.254667   0.000000
   25        0.569430   0.000000
   26        0.569473   0.000000
   27        0.594505   0.000000
   28        0.594571   0.000000
   29        1.241413   0.000000
   30        1.241474   0.000000
   31        1.291221   0.000000
   32        1.291290   0.000000
   33        3.242172   0.000000
   34        3.242237   0.000000
   35        3.244426   0.000000
   36        3.244486   0.000000
   37        3.744687   0.000000
   38        3.744716   0.000000
   39        3.751925   0.000000
   40        3.751965   0.000000
   41        4.076485   0.000000
   42        4.076509   0.000000
   43        4.077116   0.000000
   44        4.077159   0.000000
   45        4.494410   0.000000
   46        4.494636   0.000000
   47        4.498619   0.000000
   48        4.498882   0.000000
   49        5.118851   0.000000
   50        5.119135   0.000000
   51        5.123261   0.000000
   52        5.123559   0.000000
   53        5.471188   0.000000
   54        5.471238   0.000000
   55        5.476444   0.000000
   56        5.476477   0.000000
   57        6.144357   0.000000
   58        6.144523   0.000000
   59        6.151104   0.000000
   60        6.151263   0.000000
   61        6.573094   0.000000
   62        6.573160   0.000000
   63        6.582486   0.000000
   64        6.582548   0.000000
   65        7.058808   0.000000
   66        7.059173   0.000000
   67        7.061810   0.000000
   68        7.062133   0.000000
   69        7.762209   0.000000
   70        7.762298   0.000000
   71        7.772599   0.000000
   72        7.772685   0.000000
   73        8.639805   0.000000
   74        8.639835   0.000000
   75        8.646892   0.000000
   76        8.646928   0.000000
   77        9.030709   0.000000
   78        9.030811   0.000000
   79        9.056010   0.000000
   80        9.056110   0.000000
   81        9.315191   0.000000
   82        9.315267   0.000000
   83        9.321272   0.000000
   84        9.321327   0.000000
   85       10.296188   0.000000
   86       10.296220   0.000000
   87       10.307580   0.000000
   88       10.307606   0.000000
   89       10.553849   0.000000
   90       10.553878   0.000000
   91       10.567592   0.000000
   92       10.567617   0.000000
   93       11.008129   0.000000
   94       11.008176   0.000000
   95       11.011188   0.000000
   96       11.011242   0.000000
   97       11.533640   0.000000
   98       11.533827   0.000000
   99       11.541984   0.000000
  100       11.542131   0.000000
  101       11.603723   0.000000
  102       11.603898   0.000000
  103       11.610075   0.000000
  104       11.610244   0.000000
  105       11.915784   0.000000
  106       11.916149   0.000000
  107       11.918140   0.000000
  108       11.918513   0.000000
  109       12.024729   0.000000
  110       12.024789   0.000000
  111       12.030351   0.000000
  112       12.030411   0.000000
  113       12.590505   0.000000
  114       12.590543   0.000000
  115       12.593206   0.000000
  116       12.593220   0.000000
  117       12.805766   0.000000
  118       12.805959   0.000000
  119       12.807378   0.000000
  120       12.807565   0.000000
  121       13.202641   0.000000
  122       13.202778   0.000000
  123       13.213340   0.000000
  124       13.213478   0.000000
  125       13.669941   0.000000
  126       13.670093   0.000000
  127       13.677337   0.000000
  128       13.677507   0.000000
  129       14.264948   0.000000
  130       14.265257   0.000000
  131       14.267826   0.000000
  132       14.268123   0.000000
  133       14.559500   0.000000
  134       14.559797   0.000000
  135       14.566720   0.000000
  136       14.567115   0.000000
  137       15.012288   0.000000
  138       15.014408   0.000000
  139       15.018417   0.000000
  140       15.027251   0.000000
  141       15.412015   0.000000
  142       15.415725   0.000000
  143       15.429199   0.000000
  144       15.505973   0.000000
 
  0.1600000E+00  0.5000000E+00  0.0000000E+00  0.4901961E-02
    1      -16.165113   1.000000
    2      -16.165001   1.000000
    3      -16.162273   1.000000
    4      -16.162160   1.000000
    5      -10.699409   1.000000
    6      -10.699323   1.000000
    7      -10.695442   1.000000
    8      -10.695357   1.000000
    9       -6.492127   1.000000
   10       -6.492012   1.000000
   11       -6.475473   1.000000
   12       -6.475356   1.000000
   13       -5.616496   1.000000
   14       -5.616465   1.000000
   15       -5.585279   1.000000
   16       -5.585248   1.000000
   17       -3.762262   1.000000
   18       -3.762141   1.000000
   19       -3.740776   1.000000
   20       -3.740656   1.000000
   21       -0.354854   0.000000
   22       -0.354850   0.000000
   23       -0.300102   0.000000
   24       -0.300085   0.000000
   25        0.532985   0.000000
   26        0.533044   0.000000
   27        0.555642   0.000000
   28        0.555724   0.000000
   29        1.180084   0.000000
   30        1.180154   0.000000
   31        1.233916   0.000000
   32        1.233994   0.000000
   33        3.222548   0.000000
   34        3.222620   0.000000
   35        3.224693   0.000000
   36        3.224759   0.000000
   37        3.722513   0.000000
   38        3.722535   0.000000
   39        3.729110   0.000000
   40        3.729144   0.000000
   41        4.040646   0.000000
   42        4.040669   0.000000
   43        4.041218   0.000000
   44        4.041261   0.000000
   45        4.482563   0.000000
   46        4.482827   0.000000
   47        4.486867   0.000000
   48        4.487168   0.000000
   49        5.097890   0.000000
   50        5.098160   0.000000
   51        5.101768   0.000000
   52        5.102052   0.000000
   53        5.470853   0.000000
   54        5.470897   0.000000
   55        5.476646   0.000000
   56        5.476677   0.000000
   57        6.079449   0.000000
   58        6.079611   0.000000
   59        6.086083   0.000000
   60        6.086239   0.000000
   61        6.572584   0.000000
   62        6.572627   0.000000
   63        6.582248   0.000000
   64        6.582277   0.000000
   65        7.031887   0.000000
   66        7.032244   0.000000
   67        7.034756   0.000000
   68        7.035073   0.000000
   69        7.825550   0.000000
   70        7.825644   0.000000
   71        7.833548   0.000000
   72        7.833639   0.000000
   73        8.625969   0.000000
   74        8.625990   0.000000
   75        8.632910   0.000000
   76        8.632937   0.000000
   77        8.969491   0.000000
   78        8.969590   0.000000
   79        8.994160   0.000000
   80        8.994257   0.000000
   81        9.285176   0.000000
   82        9.285252   0.000000
   83        9.289981   0.000000
   84        9.290033   0.000000
   85       10.259040   0.000000
   86       10.259068   0.000000
   87       10.273409   0.000000
   88       10.273424   0.000000
   89       10.654265   0.000000
   90       10.654277   0.000000
   91       10.669066   0.000000
   92       10.669077   0.000000
   93       11.161414   0.000000
   94       11.161459   0.000000
   95       11.164724   0.000000
   96       11.164772   0.000000
   97       11.639564   0.000000
   98       11.639835   0.000000
   99       11.652831   0.000000
  100       11.653073   0.000000
  101       11.763486   0.000000
  102       11.763592   0.000000
  103       11.766581   0.000000
  104       11.766683   0.000000
  105       11.913275   0.000000
  106       11.913593   0.000000
  107       11.915729   0.000000
  108       11.916059   0.000000
  109       12.111060   0.000000
  110       12.111156   0.000000
  111       12.112829   0.000000
  112       12.112935   0.000000
  113       12.734514   0.000000
  114       12.734580   0.000000
  115       12.738216   0.000000
  116       12.738260   0.000000
  117       12.915857   0.000000
  118       12.916148   0.000000
  119       12.917211   0.000000
  120       12.917495   0.000000
  121       13.230343   0.000000
  122       13.230454   0.000000
  123       13.238775   0.000000
  124       13.238883   0.000000
  125       13.727682   0.000000
  126       13.727834   0.000000
  127       13.733623   0.000000
  128       13.733786   0.000000
  129       14.370259   0.000000
  130       14.370562   0.000000
  131       14.373525   0.000000
  132       14.373794   0.000000
  133       14.610507   0.000000
  134       14.610721   0.000000
  135       14.617279   0.000000
  136       14.617518   0.000000
  137       15.009280   0.000000
  138       15.010421   0.000000
  139       15.015076   0.000000
  140       15.015618   0.000000
  141       15.408133   0.000000
  142       15.415258   0.000000
  143       15.459881   0.000000
  144       15.487151   0.000000
 
  0.1500000E+00  0.5000000E+00  0.0000000E+00  0.4901961E-02
    1      -16.182736   1.000000
    2      -16.182623   1.000000
    3      -16.180056   1.000000
    4      -16.179943   1.000000
    5      -10.706879   1.000000
    6      -10.706794   1.000000
    7      -10.703137   1.000000
    8      -10.703052   1.000000
    9       -6.399248   1.000000
   10       -6.399137   1.000000
   11       -6.381594   1.000000
   12       -6.381482   1.000000
   13       -5.615407   1.000000
   14       -5.615376   1.000000
   15       -5.583951   1.000000
   16       -5.583922   1.000000
   17       -3.728999   1.000000
   18       -3.728880   1.000000
   19       -3.708772   1.000000
   20       -3.708653   1.000000
   21       -0.398368   0.000000
   22       -0.398348   0.000000
   23       -0.348499   0.000000
   24       -0.348468   0.000000
   25        0.497066   0.000000
   26        0.497132   0.000000
   27        0.521069   0.000000
   28        0.521157   0.000000
   29        1.124106   0.000000
   30        1.124186   0.000000
   31        1.181855   0.000000
   32        1.181943   0.000000
   33        3.202633   0.000000
   34        3.202709   0.000000
   35        3.204648   0.000000
   36        3.204718   0.000000
   37        3.701437   0.000000
   38        3.701453   0.000000
   39        3.707410   0.000000
   40        3.707438   0.000000
   41        4.006893   0.000000
   42        4.006915   0.000000
   43        4.007410   0.000000
   44        4.007451   0.000000
   45        4.471049   0.000000
   46        4.471344   0.000000
   47        4.475381   0.000000
   48        4.475712   0.000000
   49        5.076656   0.000000
   50        5.076909   0.000000
   51        5.080014   0.000000
   52        5.080281   0.000000
   53        5.476604   0.000000
   54        5.476643   0.000000
   55        5.482768   0.000000
   56        5.482798   0.000000
   57        6.017395   0.000000
   58        6.017554   0.000000
   59        6.023901   0.000000
   60        6.024054   0.000000
   61        6.572839   0.000000
   62        6.572902   0.000000
   63        6.582678   0.000000
   64        6.582724   0.000000
   65        7.007595   0.000000
   66        7.007938   0.000000
   67        7.010446   0.000000
   68        7.010752   0.000000
   69        7.880954   0.000000
   70        7.881044   0.000000
   71        7.886758   0.000000
   72        7.886844   0.000000
   73        8.618262   0.000000
   74        8.618282   0.000000
   75        8.625671   0.000000
   76        8.625693   0.000000
   77        8.909170   0.000000
   78        8.909265   0.000000
   79        8.932476   0.000000
   80        8.932570   0.000000
   81        9.257640   0.000000
   82        9.257717   0.000000
   83        9.261489   0.000000
   84        9.261540   0.000000
   85       10.199550   0.000000
   86       10.199583   0.000000
   87       10.215204   0.000000
   88       10.215223   0.000000
   89       10.784408   0.000000
   90       10.784433   0.000000
   91       10.800397   0.000000
   92       10.800422   0.000000
   93       11.313872   0.000000
   94       11.313910   0.000000
   95       11.318499   0.000000
   96       11.318536   0.000000
   97       11.696511   0.000000
   98       11.696779   0.000000
   99       11.709088   0.000000
  100       11.709335   0.000000
  101       11.901318   0.000000
  102       11.901635   0.000000
  103       11.903112   0.000000
  104       11.903458   0.000000
  105       11.946074   0.000000
  106       11.946169   0.000000
  107       11.948496   0.000000
  108       11.948566   0.000000
  109       12.232657   0.000000
  110       12.232842   0.000000
  111       12.233559   0.000000
  112       12.233724   0.000000
  113       12.853301   0.000000
  114       12.853419   0.000000
  115       12.861366   0.000000
  116       12.861473   0.000000
  117       13.012089   0.000000
  118       13.012245   0.000000
  119       13.017044   0.000000
  120       13.017194   0.000000
  121       13.275633   0.000000
  122       13.275742   0.000000
  123       13.280989   0.000000
  124       13.281101   0.000000
  125       13.809012   0.000000
  126       13.809197   0.000000
  127       13.813955   0.000000
  128       13.814137   0.000000
  129       14.441510   0.000000
  130       14.441784   0.000000
  131       14.445299   0.000000
  132       14.445496   0.000000
  133       14.643528   0.000000
  134       14.643768   0.000000
  135       14.648596   0.000000
  136       14.648804   0.000000
  137       15.046233   0.000000
  138       15.047198   0.000000
  139       15.052625   0.000000
  140       15.057330   0.000000
  141       15.401692   0.000000
  142       15.415513   0.000000
  143       15.437982   0.000000
  144       15.502785   0.000000
 
  0.1400000E+00  0.5000000E+00  0.0000000E+00  0.4901961E-02
    1      -16.199401   1.000000
    2      -16.199288   1.000000
    3      -16.196885   1.000000
    4      -16.196772   1.000000
    5      -10.714389   1.000000
    6      -10.714304   1.000000
    7      -10.710876   1.000000
    8      -10.710791   1.000000
    9       -6.306385   1.000000
   10       -6.306279   1.000000
   11       -6.287441   1.000000
   12       -6.287334   1.000000
   13       -5.614232   1.000000
   14       -5.614202   1.000000
   15       -5.582137   1.000000
   16       -5.582109   1.000000
   17       -3.700238   1.000000
   18       -3.700119   1.000000
   19       -3.681045   1.000000
   20       -3.680926   1.000000
   21       -0.444969   0.000000
   22       -0.444933   0.000000
   23       -0.399549   0.000000
   24       -0.399503   0.000000
   25        0.463346   0.000000
   26        0.463412   0.000000
   27        0.491721   0.000000
   28        0.491807   0.000000
   29        1.072972   0.000000
   30        1.073062   0.000000
   31        1.134274   0.000000
   32        1.134371   0.000000
   33        3.182792   0.000000
   34        3.182871   0.000000
   35        3.184665   0.000000
   36        3.184738   0.000000
   37        3.681413   0.000000
   38        3.681424   0.000000
   39        3.686788   0.000000
   40        3.686811   0.000000
   41        3.975247   0.000000
   42        3.975268   0.000000
   43        3.975714   0.000000
   44        3.975754   0.000000
   45        4.459714   0.000000
   46        4.460034   0.000000
   47        4.464007   0.000000
   48        4.464361   0.000000
   49        5.055320   0.000000
   50        5.055557   0.000000
   51        5.058208   0.000000
   52        5.058459   0.000000
   53        5.487376   0.000000
   54        5.487415   0.000000
   55        5.493720   0.000000
   56        5.493753   0.000000
   57        5.958344   0.000000
   58        5.958500   0.000000
   59        5.964705   0.000000
   60        5.964856   0.000000
   61        6.574466   0.000000
   62        6.574567   0.000000
   63        6.584346   0.000000
   64        6.584433   0.000000
   65        6.986431   0.000000
   66        6.986750   0.000000
   67        6.989404   0.000000
   68        6.989687   0.000000
   69        7.923859   0.000000
   70        7.923922   0.000000
   71        7.928923   0.000000
   72        7.928982   0.000000
   73        8.615892   0.000000
   74        8.615907   0.000000
   75        8.624121   0.000000
   76        8.624132   0.000000
   77        8.855165   0.000000
   78        8.855254   0.000000
   79        8.876081   0.000000
   80        8.876171   0.000000
   81        9.232949   0.000000
   82        9.233027   0.000000
   83        9.236086   0.000000
   84        9.236137   0.000000
   85       10.136441   0.000000
   86       10.136477   0.000000
   87       10.152574   0.000000
   88       10.152595   0.000000
   89       10.924978   0.000000
   90       10.925010   0.000000
   91       10.942260   0.000000
   92       10.942291   0.000000
   93       11.456582   0.000000
   94       11.456613   0.000000
   95       11.464646   0.000000
   96       11.464672   0.000000
   97       11.733559   0.000000
   98       11.733776   0.000000
   99       11.744349   0.000000
  100       11.744553   0.000000
  101       11.893668   0.000000
  102       11.893954   0.000000
  103       11.895392   0.000000
  104       11.895693   0.000000
  105       12.128453   0.000000
  106       12.128548   0.000000
  107       12.129912   0.000000
  108       12.129989   0.000000
  109       12.379363   0.000000
  110       12.379530   0.000000
  111       12.380750   0.000000
  112       12.380900   0.000000
  113       12.897692   0.000000
  114       12.897799   0.000000
  115       12.909259   0.000000
  116       12.909365   0.000000
  117       13.121400   0.000000
  118       13.121460   0.000000
  119       13.129212   0.000000
  120       13.129300   0.000000
  121       13.369317   0.000000
  122       13.369476   0.000000
  123       13.371915   0.000000
  124       13.372086   0.000000
  125       13.906684   0.000000
  126       13.906887   0.000000
  127       13.911725   0.000000
  128       13.911936   0.000000
  129       14.444409   0.000000
  130       14.444622   0.000000
  131       14.448565   0.000000
  132       14.448678   0.000000
  133       14.702860   0.000000
  134       14.704196   0.000000
  135       14.705935   0.000000
  136       14.707702   0.000000
  137       15.102292   0.000000
  138       15.106788   0.000000
  139       15.112971   0.000000
  140       15.131196   0.000000
  141       15.397857   0.000000
  142       15.425822   0.000000
  143       15.452790   0.000000
  144       15.544863   0.000000
 
  0.1300000E+00  0.5000000E+00  0.0000000E+00  0.4901961E-02
    1      -16.215070   1.000000
    2      -16.214956   1.000000
    3      -16.212721   1.000000
    4      -16.212607   1.000000
    5      -10.721828   1.000000
    6      -10.721743   1.000000
    7      -10.718549   1.000000
    8      -10.718464   1.000000
    9       -6.214602   1.000000
   10       -6.214503   1.000000
   11       -6.193986   1.000000
   12       -6.193885   1.000000
   13       -5.612343   1.000000
   14       -5.612315   1.000000
   15       -5.579127   1.000000
   16       -5.579101   1.000000
   17       -3.676495   1.000000
   18       -3.676376   1.000000
   19       -3.658109   1.000000
   20       -3.657990   1.000000
   21       -0.494300   0.000000
   22       -0.494247   0.000000
   23       -0.452661   0.000000
   24       -0.452601   0.000000
   25        0.433638   0.000000
   26        0.433705   0.000000
   27        0.467791   0.000000
   28        0.467876   0.000000
   29        1.026073   0.000000
   30        1.026172   0.000000
   31        1.090409   0.000000
   32        1.090514   0.000000
   33        3.163346   0.000000
   34        3.163427   0.000000
   35        3.165070   0.000000
   36        3.165144   0.000000
   37        3.662441   0.000000
   38        3.662447   0.000000
   39        3.667252   0.000000
   40        3.667271   0.000000
   41        3.945730   0.000000
   42        3.945750   0.000000
   43        3.946149   0.000000
   44        3.946188   0.000000
   45        4.448514   0.000000
   46        4.448853   0.000000
   47        4.452703   0.000000
   48        4.453075   0.000000
   49        5.034167   0.000000
   50        5.034389   0.000000
   51        5.036648   0.000000
   52        5.036886   0.000000
   53        5.501888   0.000000
   54        5.501930   0.000000
   55        5.508217   0.000000
   56        5.508255   0.000000
   57        5.902438   0.000000
   58        5.902592   0.000000
   59        5.908640   0.000000
   60        5.908789   0.000000
   61        6.577737   0.000000
   62        6.577880   0.000000
   63        6.587483   0.000000
   64        6.587613   0.000000
   65        6.968939   0.000000
   66        6.969220   0.000000
   67        6.972193   0.000000
   68        6.972439   0.000000
   69        7.951325   0.000000
   70        7.951378   0.000000
   71        7.958070   0.000000
   72        7.958119   0.000000
   73        8.614479   0.000000
   74        8.614489   0.000000
   75        8.622315   0.000000
   76        8.622330   0.000000
   77        8.814873   0.000000
   78        8.814955   0.000000
   79        8.831439   0.000000
   80        8.831524   0.000000
   81        9.211521   0.000000
   82        9.211601   0.000000
   83        9.214114   0.000000
   84        9.214166   0.000000
   85       10.076189   0.000000
   86       10.076229   0.000000
   87       10.092398   0.000000
   88       10.092423   0.000000
   89       11.068864   0.000000
   90       11.068903   0.000000
   91       11.087691   0.000000
   92       11.087728   0.000000
   93       11.566975   0.000000
   94       11.567026   0.000000
   95       11.580304   0.000000
   96       11.580335   0.000000
   97       11.785132   0.000000
   98       11.785226   0.000000
   99       11.796977   0.000000
  100       11.797068   0.000000
  101       11.884228   0.000000
  102       11.884509   0.000000
  103       11.885681   0.000000
  104       11.885970   0.000000
  105       12.315325   0.000000
  106       12.315410   0.000000
  107       12.316272   0.000000
  108       12.316341   0.000000
  109       12.539777   0.000000
  110       12.539913   0.000000
  111       12.541274   0.000000
  112       12.541401   0.000000
  113       12.871263   0.000000
  114       12.871323   0.000000
  115       12.883353   0.000000
  116       12.883403   0.000000
  117       13.261201   0.000000
  118       13.261326   0.000000
  119       13.268239   0.000000
  120       13.268404   0.000000
  121       13.498408   0.000000
  122       13.498590   0.000000
  123       13.499430   0.000000
  124       13.499627   0.000000
  125       14.012643   0.000000
  126       14.012831   0.000000
  127       14.017968   0.000000
  128       14.018164   0.000000
  129       14.403608   0.000000
  130       14.403654   0.000000
  131       14.408176   0.000000
  132       14.408246   0.000000
  133       14.779967   0.000000
  134       14.780786   0.000000
  135       14.783177   0.000000
  136       14.785217   0.000000
  137       15.143901   0.000000
  138       15.146123   0.000000
  139       15.150347   0.000000
  140       15.162555   0.000000
  141       15.413723   0.000000
  142       15.431039   0.000000
  143       15.476056   0.000000
  144       15.529989   0.000000
 
  0.1200000E+00  0.5000000E+00  0.0000000E+00  0.4901961E-02
    1      -16.229706   1.000000
    2      -16.229591   1.000000
    3      -16.227527   1.000000
    4      -16.227413   1.000000
    5      -10.729094   1.000000
    6      -10.729009   1.000000
    7      -10.726054   1.000000
    8      -10.725969   1.000000
    9       -6.125299   1.000000
   10       -6.125208   1.000000
   11       -6.102543   1.000000
   12       -6.102449   1.000000
   13       -5.608852   1.000000
   14       -5.608826   1.000000
   15       -5.573966   1.000000
   16       -5.573942   1.000000
   17       -3.658174   1.000000
   18       -3.658054   1.000000
   19       -3.640389   1.000000
   20       -3.640268   1.000000
   21       -0.545627   0.000000
   22       -0.545559   0.000000
   23       -0.507029   0.000000
   24       -0.506956   0.000000
   25        0.409161   0.000000
   26        0.409233   0.000000
   27        0.449299   0.000000
   28        0.449384   0.000000
   29        0.982806   0.000000
   30        0.982913   0.000000
   31        1.049579   0.000000
   32        1.049691   0.000000
   33        3.144565   0.000000
   34        3.144648   0.000000
   35        3.146138   0.000000
   36        3.146214   0.000000
   37        3.644553   0.000000
   38        3.644557   0.000000
   39        3.648837   0.000000
   40        3.648852   0.000000
   41        3.918355   0.000000
   42        3.918375   0.000000
   43        3.918731   0.000000
   44        3.918768   0.000000
   45        4.437483   0.000000
   46        4.437837   0.000000
   47        4.441511   0.000000
   48        4.441897   0.000000
   49        5.013511   0.000000
   50        5.013720   0.000000
   51        5.015650   0.000000
   52        5.015875   0.000000
   53        5.518767   0.000000
   54        5.518818   0.000000
   55        5.524902   0.000000
   56        5.524947   0.000000
   57        5.849860   0.000000
   58        5.850013   0.000000
   59        5.855888   0.000000
   60        5.856037   0.000000
   61        6.582577   0.000000
   62        6.582761   0.000000
   63        6.591969   0.000000
   64        6.592140   0.000000
   65        6.955709   0.000000
   66        6.955942   0.000000
   67        6.959414   0.000000
   68        6.959612   0.000000
   69        7.963936   0.000000
   70        7.963989   0.000000
   71        7.973392   0.000000
   72        7.973442   0.000000
   73        8.605106   0.000000
   74        8.605138   0.000000
   75        8.609747   0.000000
   76        8.609787   0.000000
   77        8.796393   0.000000
   78        8.796473   0.000000
   79        8.806751   0.000000
   80        8.806834   0.000000
   81        9.193797   0.000000
   82        9.193877   0.000000
   83        9.195946   0.000000
   84        9.195999   0.000000
   85       10.022874   0.000000
   86       10.022919   0.000000
   87       10.038901   0.000000
   88       10.038931   0.000000
   89       11.210402   0.000000
   90       11.210455   0.000000
   91       11.231223   0.000000
   92       11.231272   0.000000
   93       11.622452   0.000000
   94       11.622566   0.000000
   95       11.635342   0.000000
   96       11.635433   0.000000
   97       11.863822   0.000000
   98       11.863895   0.000000
   99       11.866274   0.000000
  100       11.866302   0.000000
  101       11.901270   0.000000
  102       11.901392   0.000000
  103       11.910363   0.000000
  104       11.910471   0.000000
  105       12.500979   0.000000
  106       12.501026   0.000000
  107       12.501271   0.000000
  108       12.501298   0.000000
  109       12.697254   0.000000
  110       12.697283   0.000000
  111       12.698224   0.000000
  112       12.698231   0.000000
  113       12.829780   0.000000
  114       12.829831   0.000000
  115       12.841207   0.000000
  116       12.841243   0.000000
  117       13.409243   0.000000
  118       13.409460   0.000000
  119       13.415855   0.000000
  120       13.416111   0.000000
  121       13.641385   0.000000
  122       13.641458   0.000000
  123       13.642067   0.000000
  124       13.642152   0.000000
  125       14.116553   0.000000
  126       14.116694   0.000000
  127       14.120697   0.000000
  128       14.120860   0.000000
  129       14.359374   0.000000
  130       14.359394   0.000000
  131       14.364997   0.000000
  132       14.365022   0.000000
  133       14.850293   0.000000
  134       14.850474   0.000000
  135       14.854671   0.000000
  136       14.855297   0.000000
  137       15.154862   0.000000
  138       15.155455   0.000000
  139       15.158154   0.000000
  140       15.166484   0.000000
  141       15.460199   0.000000
  142       15.471297   0.000000
  143       15.498034   0.000000
  144       15.594370   0.000000
 
  0.1100000E+00  0.5000000E+00  0.0000000E+00  0.4901961E-02
    1      -16.243276   1.000000
    2      -16.243161   1.000000
    3      -16.241270   1.000000
    4      -16.241155   1.000000
    5      -10.736095   1.000000
    6      -10.736010   1.000000
    7      -10.733296   1.000000
    8      -10.733212   1.000000
    9       -6.040377   1.000000
   10       -6.040296   1.000000
   11       -6.015008   1.000000
   12       -6.014924   1.000000
   13       -5.602379   1.000000
   14       -5.602356   1.000000
   15       -5.565291   1.000000
   16       -5.565271   1.000000
   17       -3.645528   1.000000
   18       -3.645406   1.000000
   19       -3.628189   1.000000
   20       -3.628067   1.000000
   21       -0.597892   0.000000
   22       -0.597810   0.000000
   23       -0.561703   0.000000
   24       -0.561618   0.000000
   25        0.390500   0.000000
   26        0.390578   0.000000
   27        0.436149   0.000000
   28        0.436237   0.000000
   29        0.942632   0.000000
   30        0.942747   0.000000
   31        1.011209   0.000000
   32        1.011327   0.000000
   33        3.126679   0.000000
   34        3.126763   0.000000
   35        3.128102   0.000000
   36        3.128180   0.000000
   37        3.627800   0.000000
   38        3.627805   0.000000
   39        3.631595   0.000000
   40        3.631607   0.000000
   41        3.893137   0.000000
   42        3.893155   0.000000
   43        3.893471   0.000000
   44        3.893507   0.000000
   45        4.426715   0.000000
   46        4.427079   0.000000
   47        4.430534   0.000000
   48        4.430928   0.000000
   49        4.993653   0.000000
   50        4.993853   0.000000
   51        4.995506   0.000000
   52        4.995722   0.000000
   53        5.536681   0.000000
   54        5.536744   0.000000
   55        5.542455   0.000000
   56        5.542511   0.000000
   57        5.800848   0.000000
   58        5.801002   0.000000
   59        5.806692   0.000000
   60        5.806843   0.000000
   61        6.588586   0.000000
   62        6.588806   0.000000
   63        6.597373   0.000000
   64        6.597580   0.000000
   65        6.947374   0.000000
   66        6.947555   0.000000
   67        6.951686   0.000000
   68        6.951833   0.000000
   69        7.964390   0.000000
   70        7.964437   0.000000
   71        7.976444   0.000000
   72        7.976490   0.000000
   73        8.580801   0.000000
   74        8.580874   0.000000
   75        8.583040   0.000000
   76        8.583105   0.000000
   77        8.796978   0.000000
   78        8.797053   0.000000
   79        8.806057   0.000000
   80        8.806131   0.000000
   81        9.180052   0.000000
   82        9.180131   0.000000
   83        9.181783   0.000000
   84        9.181838   0.000000
   85        9.980404   0.000000
   86        9.980457   0.000000
   87        9.996088   0.000000
   88        9.996126   0.000000
   89       11.339865   0.000000
   90       11.339938   0.000000
   91       11.363431   0.000000
   92       11.363502   0.000000
   93       11.648996   0.000000
   94       11.649162   0.000000
   95       11.656632   0.000000
   96       11.656778   0.000000
   97       11.864720   0.000000
   98       11.864958   0.000000
   99       11.867382   0.000000
  100       11.867605   0.000000
  101       12.029293   0.000000
  102       12.029310   0.000000
  103       12.038790   0.000000
  104       12.038811   0.000000
  105       12.647195   0.000000
  106       12.647355   0.000000
  107       12.652016   0.000000
  108       12.652163   0.000000
  109       12.762841   0.000000
  110       12.763011   0.000000
  111       12.771566   0.000000
  112       12.771726   0.000000
  113       12.915265   0.000000
  114       12.915330   0.000000
  115       12.916262   0.000000
  116       12.916341   0.000000
  117       13.554519   0.000000
  118       13.554781   0.000000
  119       13.561994   0.000000
  120       13.562289   0.000000
  121       13.785875   0.000000
  122       13.786072   0.000000
  123       13.787793   0.000000
  124       13.787992   0.000000
  125       14.189330   0.000000
  126       14.189378   0.000000
  127       14.193603   0.000000
  128       14.193744   0.000000
  129       14.351943   0.000000
  130       14.352004   0.000000
  131       14.360878   0.000000
  132       14.360945   0.000000
  133       14.906728   0.000000
  134       14.907147   0.000000
  135       14.912694   0.000000
  136       14.913653   0.000000
  137       15.142667   0.000000
  138       15.145406   0.000000
  139       15.152362   0.000000
  140       15.173326   0.000000
  141       15.528441   0.000000
  142       15.555687   0.000000
  143       15.578389   0.000000
  144       15.717769   0.000000
 
  0.1000000E+00  0.5000000E+00  0.0000000E+00  0.4901961E-02
    1      -16.255754   1.000000
    2      -16.255638   1.000000
    3      -16.253922   1.000000
    4      -16.253807   1.000000
    5      -10.742745   1.000000
    6      -10.742661   1.000000
    7      -10.740192   1.000000
    8      -10.740108   1.000000
    9       -5.962428   1.000000
   10       -5.962356   1.000000
   11       -5.934265   1.000000
   12       -5.934190   1.000000
   13       -5.590677   1.000000
   14       -5.590654   1.000000
   15       -5.551182   1.000000
   16       -5.551162   1.000000
   17       -3.638633   1.000000
   18       -3.638509   1.000000
   19       -3.621663   1.000000
   20       -3.621539   1.000000
   21       -0.649837   0.000000
   22       -0.649744   0.000000
   23       -0.615670   0.000000
   24       -0.615575   0.000000
   25        0.377745   0.000000
   26        0.377829   0.000000
   27        0.428071   0.000000
   28        0.428161   0.000000
   29        0.905115   0.000000
   30        0.905236   0.000000
   31        0.974837   0.000000
   32        0.974961   0.000000
   33        3.109876   0.000000
   34        3.109961   0.000000
   35        3.111153   0.000000
   36        3.111231   0.000000
   37        3.612246   0.000000
   38        3.612254   0.000000
   39        3.615587   0.000000
   40        3.615597   0.000000
   41        3.870085   0.000000
   42        3.870102   0.000000
   43        3.870380   0.000000
   44        3.870415   0.000000
   45        4.416330   0.000000
   46        4.416702   0.000000
   47        4.419900   0.000000
   48        4.420301   0.000000
   49        4.974856   0.000000
   50        4.975047   0.000000
   51        4.976468   0.000000
   52        4.976676   0.000000
   53        5.554343   0.000000
   54        5.554418   0.000000
   55        5.559595   0.000000
   56        5.559662   0.000000
   57        5.755731   0.000000
   58        5.755889   0.000000
   59        5.761397   0.000000
   60        5.761551   0.000000
   61        6.595075   0.000000
   62        6.595325   0.000000
   63        6.603012   0.000000
   64        6.603249   0.000000
   65        6.944508   0.000000
   66        6.944642   0.000000
   67        6.949531   0.000000
   68        6.949629   0.000000
   69        7.956261   0.000000
   70        7.956300   0.000000
   71        7.970427   0.000000
   72        7.970466   0.000000
   73        8.545064   0.000000
   74        8.545160   0.000000
   75        8.548571   0.000000
   76        8.548657   0.000000
   77        8.805602   0.000000
   78        8.805666   0.000000
   79        8.818482   0.000000
   80        8.818543   0.000000
   81        9.169887   0.000000
   82        9.169958   0.000000
   83        9.171300   0.000000
   84        9.171355   0.000000
   85        9.952887   0.000000
   86        9.952950   0.000000
   87        9.968169   0.000000
   88        9.968217   0.000000
   89       11.436800   0.000000
   90       11.436882   0.000000
   91       11.463289   0.000000
   92       11.463378   0.000000
   93       11.679877   0.000000
   94       11.679964   0.000000
   95       11.684822   0.000000
   96       11.684893   0.000000
   97       11.872256   0.000000
   98       11.872480   0.000000
   99       11.877176   0.000000
  100       11.877385   0.000000
  101       12.159865   0.000000
  102       12.159873   0.000000
  103       12.167167   0.000000
  104       12.167171   0.000000
  105       12.633516   0.000000
  106       12.633619   0.000000
  107       12.647285   0.000000
  108       12.647383   0.000000
  109       12.915248   0.000000
  110       12.915369   0.000000
  111       12.918252   0.000000
  112       12.918365   0.000000
  113       13.085409   0.000000
  114       13.085472   0.000000
  115       13.087122   0.000000
  116       13.087216   0.000000
  117       13.687994   0.000000
  118       13.688231   0.000000
  119       13.698000   0.000000
  120       13.698255   0.000000
  121       13.921692   0.000000
  122       13.921924   0.000000
  123       13.927028   0.000000
  124       13.927268   0.000000
  125       14.206761   0.000000
  126       14.206853   0.000000
  127       14.216173   0.000000
  128       14.216235   0.000000
  129       14.416005   0.000000
  130       14.416101   0.000000
  131       14.428733   0.000000
  132       14.428861   0.000000
  133       14.947086   0.000000
  134       14.948178   0.000000
  135       14.953421   0.000000
  136       14.953929   0.000000
  137       15.127913   0.000000
  138       15.129039   0.000000
  139       15.136950   0.000000
  140       15.139483   0.000000
  141       15.588424   0.000000
  142       15.603515   0.000000
  143       15.615279   0.000000
  144       15.754345   0.000000
 
  0.9000000E-01  0.5000000E+00  0.0000000E+00  0.4901961E-02
    1      -16.267111   1.000000
    2      -16.266995   1.000000
    3      -16.265457   1.000000
    4      -16.265341   1.000000
    5      -10.748969   1.000000
    6      -10.748885   1.000000
    7      -10.746665   1.000000
    8      -10.746580   1.000000
    9       -5.894673   1.000000
   10       -5.894612   1.000000
   11       -5.864502   1.000000
   12       -5.864438   1.000000
   13       -5.570316   1.000000
   14       -5.570288   1.000000
   15       -5.529211   1.000000
   16       -5.529187   1.000000
   17       -3.637344   1.000000
   18       -3.637218   1.000000
   19       -3.620759   1.000000
   20       -3.620634   1.000000
   21       -0.700147   0.000000
   22       -0.700043   0.000000
   23       -0.667902   0.000000
   24       -0.667798   0.000000
   25        0.370654   0.000000
   26        0.370743   0.000000
   27        0.424626   0.000000
   28        0.424719   0.000000
   29        0.869962   0.000000
   30        0.870090   0.000000
   31        0.940130   0.000000
   32        0.940259   0.000000
   33        3.094313   0.000000
   34        3.094398   0.000000
   35        3.095448   0.000000
   36        3.095526   0.000000
   37        3.597959   0.000000
   38        3.597969   0.000000
   39        3.600877   0.000000
   40        3.600885   0.000000
   41        3.849208   0.000000
   42        3.849225   0.000000
   43        3.849467   0.000000
   44        3.849501   0.000000
   45        4.406466   0.000000
   46        4.406843   0.000000
   47        4.409755   0.000000
   48        4.410161   0.000000
   49        4.957339   0.000000
   50        4.957525   0.000000
   51        4.958745   0.000000
   52        4.958947   0.000000
   53        5.570452   0.000000
   54        5.570538   0.000000
   55        5.574998   0.000000
   56        5.575072   0.000000
   57        5.715120   0.000000
   58        5.715288   0.000000
   59        5.720640   0.000000
   60        5.720804   0.000000
   61        6.601249   0.000000
   62        6.601521   0.000000
   63        6.608145   0.000000
   64        6.608402   0.000000
   65        6.947475   0.000000
   66        6.947573   0.000000
   67        6.953214   0.000000
   68        6.953274   0.000000
   69        7.943261   0.000000
   70        7.943291   0.000000
   71        7.959000   0.000000
   72        7.959030   0.000000
   73        8.506258   0.000000
   74        8.506358   0.000000
   75        8.510286   0.000000
   76        8.510376   0.000000
   77        8.813842   0.000000
   78        8.813903   0.000000
   79        8.829729   0.000000
   80        8.829789   0.000000
   81        9.161680   0.000000
   82        9.161725   0.000000
   83        9.163344   0.000000
   84        9.163389   0.000000
   85        9.944221   0.000000
   86        9.944294   0.000000
   87        9.959134   0.000000
   88        9.959194   0.000000
   89       11.482239   0.000000
   90       11.482290   0.000000
   91       11.508703   0.000000
   92       11.508763   0.000000
   93       11.719020   0.000000
   94       11.719073   0.000000
   95       11.725508   0.000000
   96       11.725564   0.000000
   97       11.914502   0.000000
   98       11.914674   0.000000
   99       11.924101   0.000000
  100       11.924256   0.000000
  101       12.249933   0.000000
  102       12.249954   0.000000
  103       12.254135   0.000000
  104       12.254162   0.000000
  105       12.618095   0.000000
  106       12.618192   0.000000
  107       12.633616   0.000000
  108       12.633709   0.000000
  109       13.105414   0.000000
  110       13.105530   0.000000
  111       13.107452   0.000000
  112       13.107558   0.000000
  113       13.263156   0.000000
  114       13.263215   0.000000
  115       13.265579   0.000000
  116       13.265668   0.000000
  117       13.795895   0.000000
  118       13.796102   0.000000
  119       13.808164   0.000000
  120       13.808362   0.000000
  121       14.035603   0.000000
  122       14.035854   0.000000
  123       14.047461   0.000000
  124       14.047711   0.000000
  125       14.238395   0.000000
  126       14.238532   0.000000
  127       14.246407   0.000000
  128       14.246532   0.000000
  129       14.508927   0.000000
  130       14.509034   0.000000
  131       14.522272   0.000000
  132       14.522389   0.000000
  133       14.964357   0.000000
  134       14.964879   0.000000
  135       14.971583   0.000000
  136       14.972132   0.000000
  137       15.128407   0.000000
  138       15.129883   0.000000
  139       15.139905   0.000000
  140       15.140730   0.000000
  141       15.614261   0.000000
  142       15.618025   0.000000
  143       15.630405   0.000000
  144       15.671586   0.000000
 
  0.8000000E-01  0.5000000E+00  0.0000000E+00  0.4901961E-02
    1      -16.277324   1.000000
    2      -16.277207   1.000000
    3      -16.275848   1.000000
    4      -16.275732   1.000000
    5      -10.754700   1.000000
    6      -10.754616   1.000000
    7      -10.752646   1.000000
    8      -10.752561   1.000000
    9       -5.840179   1.000000
   10       -5.840127   1.000000
   11       -5.810380   1.000000
   12       -5.810324   1.000000
   13       -5.537550   1.000000
   14       -5.537512   1.000000
   15       -5.497269   1.000000
   16       -5.497235   1.000000
   17       -3.641265   1.000000
   18       -3.641138   1.000000
   19       -3.625184   1.000000
   20       -3.625057   1.000000
   21       -0.747579   0.000000
   22       -0.747467   0.000000
   23       -0.717409   0.000000
   24       -0.717297   0.000000
   25        0.368770   0.000000
   26        0.368863   0.000000
   27        0.425225   0.000000
   28        0.425319   0.000000
   29        0.837035   0.000000
   30        0.837169   0.000000
   31        0.906867   0.000000
   32        0.907000   0.000000
   33        3.080117   0.000000
   34        3.080202   0.000000
   35        3.081115   0.000000
   36        3.081194   0.000000
   37        3.585004   0.000000
   38        3.585016   0.000000
   39        3.587528   0.000000
   40        3.587534   0.000000
   41        3.830513   0.000000
   42        3.830529   0.000000
   43        3.830738   0.000000
   44        3.830772   0.000000
   45        4.397261   0.000000
   46        4.397643   0.000000
   47        4.400243   0.000000
   48        4.400652   0.000000
   49        4.941283   0.000000
   50        4.941464   0.000000
   51        4.942508   0.000000
   52        4.942706   0.000000
   53        5.583220   0.000000
   54        5.583309   0.000000
   55        5.586792   0.000000
   56        5.586871   0.000000
   57        5.680362   0.000000
   58        5.680551   0.000000
   59        5.685823   0.000000
   60        5.686008   0.000000
   61        6.606398   0.000000
   62        6.606681   0.000000
   63        6.612161   0.000000
   64        6.612428   0.000000
   65        6.956198   0.000000
   66        6.956274   0.000000
   67        6.962525   0.000000
   68        6.962560   0.000000
   69        7.928706   0.000000
   70        7.928726   0.000000
   71        7.945527   0.000000
   72        7.945547   0.000000
   73        8.467434   0.000000
   74        8.467534   0.000000
   75        8.471191   0.000000
   76        8.471282   0.000000
   77        8.816206   0.000000
   78        8.816268   0.000000
   79        8.833551   0.000000
   80        8.833613   0.000000
   81        9.153234   0.000000
   82        9.153265   0.000000
   83        9.155680   0.000000
   84        9.155727   0.000000
   85        9.956881   0.000000
   86        9.956963   0.000000
   87        9.971485   0.000000
   88        9.971554   0.000000
   89       11.490409   0.000000
   90       11.490438   0.000000
   91       11.514999   0.000000
   92       11.515025   0.000000
   93       11.739034   0.000000
   94       11.739150   0.000000
   95       11.743857   0.000000
   96       11.743991   0.000000
   97       12.006894   0.000000
   98       12.006991   0.000000
   99       12.021540   0.000000
  100       12.021621   0.000000
  101       12.260801   0.000000
  102       12.260850   0.000000
  103       12.265976   0.000000
  104       12.266031   0.000000
  105       12.679209   0.000000
  106       12.679292   0.000000
  107       12.693004   0.000000
  108       12.693090   0.000000
  109       13.298303   0.000000
  110       13.298428   0.000000
  111       13.300214   0.000000
  112       13.300332   0.000000
  113       13.439563   0.000000
  114       13.439621   0.000000
  115       13.442891   0.000000
  116       13.442978   0.000000
  117       13.865136   0.000000
  118       13.865352   0.000000
  119       13.874350   0.000000
  120       13.874546   0.000000
  121       14.131594   0.000000
  122       14.131780   0.000000
  123       14.144055   0.000000
  124       14.144208   0.000000
  125       14.317530   0.000000
  126       14.317638   0.000000
  127       14.324221   0.000000
  128       14.324312   0.000000
  129       14.600642   0.000000
  130       14.600741   0.000000
  131       14.613343   0.000000
  132       14.613462   0.000000
  133       14.953126   0.000000
  134       14.953359   0.000000
  135       14.962557   0.000000
  136       14.962659   0.000000
  137       15.162278   0.000000
  138       15.162588   0.000000
  139       15.175930   0.000000
  140       15.177722   0.000000
  141       15.604637   0.000000
  142       15.605649   0.000000
  143       15.614105   0.000000
  144       15.626203   0.000000
 
  0.7000000E-01  0.5000000E+00  0.0000000E+00  0.4901961E-02
    1      -16.286372   1.000000
    2      -16.286256   1.000000
    3      -16.285077   1.000000
    4      -16.284961   1.000000
    5      -10.759878   1.000000
    6      -10.759794   1.000000
    7      -10.758076   1.000000
    8      -10.757991   1.000000
    9       -5.800144   1.000000
   10       -5.800096   1.000000
   11       -5.773761   1.000000
   12       -5.773709   1.000000
   13       -5.491607   1.000000
   14       -5.491557   1.000000
   15       -5.455297   1.000000
   16       -5.455252   1.000000
   17       -3.649715   1.000000
   18       -3.649587   1.000000
   19       -3.634355   1.000000
   20       -3.634228   1.000000
   21       -0.791055   0.000000
   22       -0.790938   0.000000
   23       -0.763287   0.000000
   24       -0.763170   0.000000
   25        0.371499   0.000000
   26        0.371595   0.000000
   27        0.429138   0.000000
   28        0.429233   0.000000
   29        0.806368   0.000000
   30        0.806507   0.000000
   31        0.874934   0.000000
   32        0.875071   0.000000
   33        3.067394   0.000000
   34        3.067479   0.000000
   35        3.068260   0.000000
   36        3.068338   0.000000
   37        3.573441   0.000000
   38        3.573456   0.000000
   39        3.575596   0.000000
   40        3.575601   0.000000
   41        3.814006   0.000000
   42        3.814022   0.000000
   43        3.814200   0.000000
   44        3.814233   0.000000
   45        4.388846   0.000000
   46        4.389231   0.000000
   47        4.391500   0.000000
   48        4.391911   0.000000
   49        4.926834   0.000000
   50        4.927012   0.000000
   51        4.927894   0.000000
   52        4.928088   0.000000
   53        5.588825   0.000000
   54        5.588921   0.000000
   55        5.591149   0.000000
   56        5.591239   0.000000
   57        5.655040   0.000000
   58        5.655270   0.000000
   59        5.660518   0.000000
   60        5.660741   0.000000
   61        6.610098   0.000000
   62        6.610380   0.000000
   63        6.614746   0.000000
   64        6.615012   0.000000
   65        6.969970   0.000000
   66        6.970037   0.000000
   67        6.976621   0.000000
   68        6.976645   0.000000
   69        7.915299   0.000000
   70        7.915309   0.000000
   71        7.932757   0.000000
   72        7.932769   0.000000
   73        8.429351   0.000000
   74        8.429444   0.000000
   75        8.432566   0.000000
   76        8.432652   0.000000
   77        8.811316   0.000000
   78        8.811381   0.000000
   79        8.828880   0.000000
   80        8.828946   0.000000
   81        9.143085   0.000000
   82        9.143118   0.000000
   83        9.146193   0.000000
   84        9.146247   0.000000
   85        9.990670   0.000000
   86        9.990757   0.000000
   87       10.004955   0.000000
   88       10.005029   0.000000
   89       11.481762   0.000000
   90       11.481791   0.000000
   91       11.504976   0.000000
   92       11.504990   0.000000
   93       11.739133   0.000000
   94       11.739307   0.000000
   95       11.742811   0.000000
   96       11.743003   0.000000
   97       12.096998   0.000000
   98       12.097069   0.000000
   99       12.109430   0.000000
  100       12.109488   0.000000
  101       12.251600   0.000000
  102       12.251608   0.000000
  103       12.258351   0.000000
  104       12.258362   0.000000
  105       12.794677   0.000000
  106       12.794734   0.000000
  107       12.806622   0.000000
  108       12.806687   0.000000
  109       13.484945   0.000000
  110       13.485083   0.000000
  111       13.487547   0.000000
  112       13.487683   0.000000
  113       13.608496   0.000000
  114       13.608561   0.000000
  115       13.613565   0.000000
  116       13.613659   0.000000
  117       13.910685   0.000000
  118       13.910912   0.000000
  119       13.913741   0.000000
  120       13.913950   0.000000
  121       14.217439   0.000000
  122       14.217566   0.000000
  123       14.226416   0.000000
  124       14.226569   0.000000
  125       14.420246   0.000000
  126       14.420455   0.000000
  127       14.425130   0.000000
  128       14.425327   0.000000
  129       14.685038   0.000000
  130       14.685204   0.000000
  131       14.695958   0.000000
  132       14.696134   0.000000
  133       14.931143   0.000000
  134       14.931367   0.000000
  135       14.938688   0.000000
  136       14.938838   0.000000
  137       15.222389   0.000000
  138       15.223095   0.000000
  139       15.236866   0.000000
  140       15.238613   0.000000
  141       15.585575   0.000000
  142       15.589738   0.000000
  143       15.599096   0.000000
  144       15.612380   0.000000
 
  0.6000000E-01  0.5000000E+00  0.0000000E+00  0.4901961E-02
    1      -16.294239   1.000000
    2      -16.294122   1.000000
    3      -16.293125   1.000000
    4      -16.293008   1.000000
    5      -10.764451   1.000000
    6      -10.764366   1.000000
    7      -10.762902   1.000000
    8      -10.762818   1.000000
    9       -5.772904   1.000000
   10       -5.772858   1.000000
   11       -5.751611   1.000000
   12       -5.751561   1.000000
   13       -5.436807   1.000000
   14       -5.436749   1.000000
   15       -5.406295   1.000000
   16       -5.406241   1.000000
   17       -3.661708   1.000000
   18       -3.661580   1.000000
   19       -3.647375   1.000000
   20       -3.647247   1.000000
   21       -0.829695   0.000000
   22       -0.829574   0.000000
   23       -0.804754   0.000000
   24       -0.804633   0.000000
   25        0.378165   0.000000
   26        0.378263   0.000000
   27        0.435479   0.000000
   28        0.435574   0.000000
   29        0.778221   0.000000
   30        0.778365   0.000000
   31        0.844341   0.000000
   32        0.844482   0.000000
   33        3.056226   0.000000
   34        3.056311   0.000000
   35        3.056965   0.000000
   36        3.057043   0.000000
   37        3.563327   0.000000
   38        3.563343   0.000000
   39        3.565133   0.000000
   40        3.565137   0.000000
   41        3.799693   0.000000
   42        3.799709   0.000000
   43        3.799858   0.000000
   44        3.799889   0.000000
   45        4.381339   0.000000
   46        4.381726   0.000000
   47        4.383647   0.000000
   48        4.384060   0.000000
   49        4.914110   0.000000
   50        4.914285   0.000000
   51        4.915015   0.000000
   52        4.915207   0.000000
   53        5.581313   0.000000
   54        5.581405   0.000000
   55        5.583091   0.000000
   56        5.583183   0.000000
   57        5.644852   0.000000
   58        5.645114   0.000000
   59        5.649920   0.000000
   60        5.650171   0.000000
   61        6.612292   0.000000
   62        6.612563   0.000000
   63        6.615931   0.000000
   64        6.616186   0.000000
   65        6.987448   0.000000
   66        6.987513   0.000000
   67        6.994066   0.000000
   68        6.994089   0.000000
   69        7.905127   0.000000
   70        7.905139   0.000000
   71        7.922777   0.000000
   72        7.922793   0.000000
   73        8.391969   0.000000
   74        8.392038   0.000000
   75        8.394910   0.000000
   76        8.394974   0.000000
   77        8.800395   0.000000
   78        8.800462   0.000000
   79        8.817239   0.000000
   80        8.817308   0.000000
   81        9.131127   0.000000
   82        9.131163   0.000000
   83        9.134440   0.000000
   84        9.134499   0.000000
   85       10.042404   0.000000
   86       10.042491   0.000000
   87       10.056257   0.000000
   88       10.056334   0.000000
   89       11.465029   0.000000
   90       11.465058   0.000000
   91       11.487514   0.000000
   92       11.487527   0.000000
   93       11.730205   0.000000
   94       11.730412   0.000000
   95       11.733401   0.000000
   96       11.733625   0.000000
   97       12.077178   0.000000
   98       12.077258   0.000000
   99       12.082627   0.000000
  100       12.082710   0.000000
  101       12.346289   0.000000
  102       12.346319   0.000000
  103       12.359659   0.000000
  104       12.359694   0.000000
  105       12.922856   0.000000
  106       12.922895   0.000000
  107       12.933745   0.000000
  108       12.933794   0.000000
  109       13.641827   0.000000
  110       13.641979   0.000000
  111       13.644615   0.000000
  112       13.644768   0.000000
  113       13.770103   0.000000
  114       13.770194   0.000000
  115       13.777487   0.000000
  116       13.777602   0.000000
  117       13.974347   0.000000
  118       13.974548   0.000000
  119       13.976758   0.000000
  120       13.976984   0.000000
  121       14.264171   0.000000
  122       14.264322   0.000000
  123       14.284368   0.000000
  124       14.284525   0.000000
  125       14.525580   0.000000
  126       14.526016   0.000000
  127       14.532640   0.000000
  128       14.533078   0.000000
  129       14.758427   0.000000
  130       14.758687   0.000000
  131       14.767826   0.000000
  132       14.768104   0.000000
  133       14.918791   0.000000
  134       14.918955   0.000000
  135       14.922798   0.000000
  136       14.923053   0.000000
  137       15.293819   0.000000
  138       15.295454   0.000000
  139       15.305885   0.000000
  140       15.307775   0.000000
  141       15.576703   0.000000
  142       15.583854   0.000000
  143       15.593647   0.000000
  144       15.627263   0.000000
 
  0.5000000E-01  0.5000000E+00  0.0000000E+00  0.4901961E-02
    1      -16.300906   1.000000
    2      -16.300789   1.000000
    3      -16.299975   1.000000
    4      -16.299858   1.000000
    5      -10.768373   1.000000
    6      -10.768289   1.000000
    7      -10.767080   1.000000
    8      -10.766996   1.000000
    9       -5.755143   1.000000
   10       -5.755097   1.000000
   11       -5.738929   1.000000
   12       -5.738880   1.000000
   13       -5.379646   1.000000
   14       -5.379582   1.000000
   15       -5.355125   1.000000
   16       -5.355064   1.000000
   17       -3.675948   1.000000
   18       -3.675819   1.000000
   19       -3.663018   1.000000
   20       -3.662890   1.000000
   21       -0.862814   0.000000
   22       -0.862690   0.000000
   23       -0.841161   0.000000
   24       -0.841037   0.000000
   25        0.388023   0.000000
   26        0.388121   0.000000
   27        0.443163   0.000000
   28        0.443257   0.000000
   29        0.753128   0.000000
   30        0.753278   0.000000
   31        0.815226   0.000000
   32        0.815371   0.000000
   33        3.046684   0.000000
   34        3.046768   0.000000
   35        3.047298   0.000000
   36        3.047377   0.000000
   37        3.554709   0.000000
   38        3.554726   0.000000
   39        3.556184   0.000000
   40        3.556188   0.000000
   41        3.787576   0.000000
   42        3.787593   0.000000
   43        3.787714   0.000000
   44        3.787744   0.000000
   45        4.374845   0.000000
   46        4.375234   0.000000
   47        4.376792   0.000000
   48        4.377206   0.000000
   49        4.903205   0.000000
   50        4.903378   0.000000
   51        4.903962   0.000000
   52        4.904151   0.000000
   53        5.564293   0.000000
   54        5.564368   0.000000
   55        5.566151   0.000000
   56        5.566226   0.000000
   57        5.646386   0.000000
   58        5.646651   0.000000
   59        5.650546   0.000000
   60        5.650798   0.000000
   61        6.613219   0.000000
   62        6.613473   0.000000
   63        6.615995   0.000000
   64        6.616234   0.000000
   65        7.006821   0.000000
   66        7.006885   0.000000
   67        7.013019   0.000000
   68        7.013043   0.000000
   69        7.899614   0.000000
   70        7.899639   0.000000
   71        7.916931   0.000000
   72        7.916960   0.000000
   73        8.355245   0.000000
   74        8.355283   0.000000
   75        8.358558   0.000000
   76        8.358594   0.000000
   77        8.785778   0.000000
   78        8.785848   0.000000
   79        8.801122   0.000000
   80        8.801193   0.000000
   81        9.118430   0.000000
   82        9.118467   0.000000
   83        9.121506   0.000000
   84        9.121566   0.000000
   85       10.106701   0.000000
   86       10.106787   0.000000
   87       10.119903   0.000000
   88       10.119979   0.000000
   89       11.443081   0.000000
   90       11.443103   0.000000
   91       11.465066   0.000000
   92       11.465075   0.000000
   93       11.716447   0.000000
   94       11.716672   0.000000
   95       11.719303   0.000000
   96       11.719546   0.000000
   97       12.010382   0.000000
   98       12.010475   0.000000
   99       12.017579   0.000000
  100       12.017680   0.000000
  101       12.489605   0.000000
  102       12.489641   0.000000
  103       12.506573   0.000000
  104       12.506613   0.000000
  105       13.042506   0.000000
  106       13.042533   0.000000
  107       13.052827   0.000000
  108       13.052863   0.000000
  109       13.733340   0.000000
  110       13.733440   0.000000
  111       13.735804   0.000000
  112       13.735900   0.000000
  113       13.946827   0.000000
  114       13.946916   0.000000
  115       13.953640   0.000000
  116       13.953747   0.000000
  117       14.080955   0.000000
  118       14.081046   0.000000
  119       14.083684   0.000000
  120       14.083795   0.000000
  121       14.268753   0.000000
  122       14.268854   0.000000
  123       14.297920   0.000000
  124       14.298030   0.000000
  125       14.631626   0.000000
  126       14.632043   0.000000
  127       14.640568   0.000000
  128       14.641009   0.000000
  129       14.811936   0.000000
  130       14.812247   0.000000
  131       14.822799   0.000000
  132       14.823183   0.000000
  133       14.925877   0.000000
  134       14.926268   0.000000
  135       14.932031   0.000000
  136       14.932206   0.000000
  137       15.363664   0.000000
  138       15.366713   0.000000
  139       15.375732   0.000000
  140       15.382448   0.000000
  141       15.586193   0.000000
  142       15.595139   0.000000
  143       15.603798   0.000000
  144       15.637128   0.000000
 
  0.4000000E-01  0.5000000E+00  0.0000000E+00  0.4901961E-02
    1      -16.306361   1.000000
    2      -16.306245   1.000000
    3      -16.305613   1.000000
    4      -16.305497   1.000000
    5      -10.771609   1.000000
    6      -10.771525   1.000000
    7      -10.770572   1.000000
    8      -10.770487   1.000000
    9       -5.743698   1.000000
   10       -5.743652   1.000000
   11       -5.731844   1.000000
   12       -5.731796   1.000000
   13       -5.325682   1.000000
   14       -5.325615   1.000000
   15       -5.306682   1.000000
   16       -5.306616   1.000000
   17       -3.690867   1.000000
   18       -3.690737   1.000000
   19       -3.679764   1.000000
   20       -3.679635   1.000000
   21       -0.889923   0.000000
   22       -0.889797   0.000000
   23       -0.871998   0.000000
   24       -0.871872   0.000000
   25        0.400249   0.000000
   26        0.400347   0.000000
   27        0.450846   0.000000
   28        0.450937   0.000000
   29        0.731957   0.000000
   30        0.732113   0.000000
   31        0.787882   0.000000
   32        0.788031   0.000000
   33        3.038819   0.000000
   34        3.038903   0.000000
   35        3.039315   0.000000
   36        3.039393   0.000000
   37        3.547628   0.000000
   38        3.547646   0.000000
   39        3.548787   0.000000
   40        3.548790   0.000000
   41        3.777660   0.000000
   42        3.777677   0.000000
   43        3.777773   0.000000
   44        3.777802   0.000000
   45        4.369451   0.000000
   46        4.369841   0.000000
   47        4.371024   0.000000
   48        4.371439   0.000000
   49        4.894198   0.000000
   50        4.894369   0.000000
   51        4.894809   0.000000
   52        4.894997   0.000000
   53        5.546409   0.000000
   54        5.546483   0.000000
   55        5.548120   0.000000
   56        5.548194   0.000000
   57        5.651348   0.000000
   58        5.651613   0.000000
   59        5.654589   0.000000
   60        5.654840   0.000000
   61        6.613273   0.000000
   62        6.613506   0.000000
   63        6.615334   0.000000
   64        6.615554   0.000000
   65        7.026084   0.000000
   66        7.026150   0.000000
   67        7.031502   0.000000
   68        7.031526   0.000000
   69        7.899386   0.000000
   70        7.899427   0.000000
   71        7.915665   0.000000
   72        7.915710   0.000000
   73        8.319824   0.000000
   74        8.319856   0.000000
   75        8.323884   0.000000
   76        8.323919   0.000000
   77        8.770066   0.000000
   78        8.770136   0.000000
   79        8.783216   0.000000
   80        8.783287   0.000000
   81        9.106429   0.000000
   82        9.106464   0.000000
   83        9.108987   0.000000
   84        9.109048   0.000000
   85       10.177010   0.000000
   86       10.177093   0.000000
   87       10.189191   0.000000
   88       10.189265   0.000000
   89       11.416940   0.000000
   90       11.416947   0.000000
   91       11.437975   0.000000
   92       11.437987   0.000000
   93       11.699269   0.000000
   94       11.699491   0.000000
   95       11.701667   0.000000
   96       11.701909   0.000000
   97       11.947764   0.000000
   98       11.947875   0.000000
   99       11.955368   0.000000
  100       11.955489   0.000000
  101       12.639917   0.000000
  102       12.639956   0.000000
  103       12.658564   0.000000
  104       12.658610   0.000000
  105       13.139680   0.000000
  106       13.139695   0.000000
  107       13.149878   0.000000
  108       13.149904   0.000000
  109       13.785173   0.000000
  110       13.785253   0.000000
  111       13.792237   0.000000
  112       13.792316   0.000000
  113       14.114489   0.000000
  114       14.114552   0.000000
  115       14.121119   0.000000
  116       14.121181   0.000000
  117       14.179026   0.000000
  118       14.179198   0.000000
  119       14.183059   0.000000
  120       14.183205   0.000000
  121       14.295878   0.000000
  122       14.296022   0.000000
  123       14.317537   0.000000
  124       14.317673   0.000000
  125       14.724365   0.000000
  126       14.724677   0.000000
  127       14.730278   0.000000
  128       14.730532   0.000000
  129       14.860709   0.000000
  130       14.860970   0.000000
  131       14.871396   0.000000
  132       14.871741   0.000000
  133       14.945689   0.000000
  134       14.945742   0.000000
  135       14.951118   0.000000
  136       14.951440   0.000000
  137       15.415400   0.000000
  138       15.416536   0.000000
  139       15.421224   0.000000
  140       15.443936   0.000000
  141       15.598668   0.000000
  142       15.603646   0.000000
  143       15.621918   0.000000
  144       15.756974   0.000000
 
  0.3000000E-01  0.5000000E+00  0.0000000E+00  0.4901961E-02
    1      -16.310598   1.000000
    2      -16.310482   1.000000
    3      -16.310033   1.000000
    4      -16.309917   1.000000
    5      -10.774129   1.000000
    6      -10.774045   1.000000
    7      -10.773347   1.000000
    8      -10.773263   1.000000
    9       -5.736298   1.000000
   10       -5.736253   1.000000
   11       -5.728054   1.000000
   12       -5.728007   1.000000
   13       -5.279038   1.000000
   14       -5.278968   1.000000
   15       -5.265086   1.000000
   16       -5.265017   1.000000
   17       -3.704716   1.000000
   18       -3.704585   1.000000
   19       -3.695880   1.000000
   20       -3.695750   1.000000
   21       -0.910695   0.000000
   22       -0.910568   0.000000
   23       -0.896885   0.000000
   24       -0.896759   0.000000
   25        0.413908   0.000000
   26        0.414004   0.000000
   27        0.456923   0.000000
   28        0.457012   0.000000
   29        0.715921   0.000000
   30        0.716082   0.000000
   31        0.762798   0.000000
   32        0.762951   0.000000
   33        3.032674   0.000000
   34        3.032756   0.000000
   35        3.033055   0.000000
   36        3.033131   0.000000
   37        3.542118   0.000000
   38        3.542137   0.000000
   39        3.542971   0.000000
   40        3.542974   0.000000
   41        3.769947   0.000000
   42        3.769964   0.000000
   43        3.770037   0.000000
   44        3.770064   0.000000
   45        4.365227   0.000000
   46        4.365618   0.000000
   47        4.366418   0.000000
   48        4.366832   0.000000
   49        4.887148   0.000000
   50        4.887315   0.000000
   51        4.887615   0.000000
   52        4.887800   0.000000
   53        5.531269   0.000000
   54        5.531346   0.000000
   55        5.532655   0.000000
   56        5.532730   0.000000
   57        5.656290   0.000000
   58        5.656556   0.000000
   59        5.658674   0.000000
   60        5.658925   0.000000
   61        6.612866   0.000000
   62        6.613077   0.000000
   63        6.614341   0.000000
   64        6.614542   0.000000
   65        7.043331   0.000000
   66        7.043399   0.000000
   67        7.047666   0.000000
   68        7.047692   0.000000
   69        7.903995   0.000000
   70        7.904053   0.000000
   71        7.918246   0.000000
   72        7.918308   0.000000
   73        8.287325   0.000000
   74        8.287368   0.000000
   75        8.291880   0.000000
   76        8.291926   0.000000
   77        8.755666   0.000000
   78        8.755735   0.000000
   79        8.766033   0.000000
   80        8.766102   0.000000
   81        9.096291   0.000000
   82        9.096325   0.000000
   83        9.098215   0.000000
   84        9.098274   0.000000
   85       10.246059   0.000000
   86       10.246139   0.000000
   87       10.256611   0.000000
   88       10.256683   0.000000
   89       11.388068   0.000000
   90       11.388088   0.000000
   91       11.406829   0.000000
   92       11.406859   0.000000
   93       11.680229   0.000000
   94       11.680403   0.000000
   95       11.682205   0.000000
   96       11.682398   0.000000
   97       11.900054   0.000000
   98       11.900182   0.000000
   99       11.906635   0.000000
  100       11.906772   0.000000
  101       12.787261   0.000000
  102       12.787305   0.000000
  103       12.806687   0.000000
  104       12.806740   0.000000
  105       13.203444   0.000000
  106       13.203450   0.000000
  107       13.214114   0.000000
  108       13.214128   0.000000
  109       13.833475   0.000000
  110       13.833569   0.000000
  111       13.843380   0.000000
  112       13.843477   0.000000
  113       14.099646   0.000000
  114       14.099743   0.000000
  115       14.121754   0.000000
  116       14.121840   0.000000
  117       14.345684   0.000000
  118       14.345942   0.000000
  119       14.349878   0.000000
  120       14.350146   0.000000
  121       14.407221   0.000000
  122       14.407441   0.000000
  123       14.418879   0.000000
  124       14.419106   0.000000
  125       14.779401   0.000000
  126       14.779478   0.000000
  127       14.781170   0.000000
  128       14.781444   0.000000
  129       14.929735   0.000000
  130       14.930551   0.000000
  131       14.937794   0.000000
  132       14.938253   0.000000
  133       14.965852   0.000000
  134       14.965887   0.000000
  135       14.971872   0.000000
  136       14.972381   0.000000
  137       15.403995   0.000000
  138       15.406817   0.000000
  139       15.411855   0.000000
  140       15.423397   0.000000
  141       15.632450   0.000000
  142       15.645354   0.000000
  143       15.687706   0.000000
  144       15.707798   0.000000
 
  0.2000000E-01  0.5000000E+00  0.0000000E+00  0.4901961E-02
    1      -16.313602   1.000000
    2      -16.313488   1.000000
    3      -16.313219   1.000000
    4      -16.313105   1.000000
    5      -10.775908   1.000000
    6      -10.775825   1.000000
    7      -10.775382   1.000000
    8      -10.775299   1.000000
    9       -5.731501   1.000000
   10       -5.731455   1.000000
   11       -5.726300   1.000000
   12       -5.726254   1.000000
   13       -5.242775   1.000000
   14       -5.242703   1.000000
   15       -5.233576   1.000000
   16       -5.233504   1.000000
   17       -3.715733   1.000000
   18       -3.715602   1.000000
   19       -3.709570   1.000000
   20       -3.709440   1.000000
   21       -0.924929   0.000000
   22       -0.924802   0.000000
   23       -0.915543   0.000000
   24       -0.915416   0.000000
   25        0.427901   0.000000
   26        0.427995   0.000000
   27        0.459714   0.000000
   28        0.459801   0.000000
   29        0.706407   0.000000
   30        0.706571   0.000000
   31        0.740732   0.000000
   32        0.740890   0.000000
   33        3.028278   0.000000
   34        3.028354   0.000000
   35        3.028551   0.000000
   36        3.028623   0.000000
   37        3.538203   0.000000
   38        3.538223   0.000000
   39        3.538760   0.000000
   40        3.538763   0.000000
   41        3.764437   0.000000
   42        3.764457   0.000000
   43        3.764509   0.000000
   44        3.764533   0.000000
   45        4.362228   0.000000
   46        4.362620   0.000000
   47        4.363029   0.000000
   48        4.363444   0.000000
   49        4.882100   0.000000
   50        4.882259   0.000000
   51        4.882430   0.000000
   52        4.882607   0.000000
   53        5.520095   0.000000
   54        5.520172   0.000000
   55        5.521060   0.000000
   56        5.521136   0.000000
   57        5.660196   0.000000
   58        5.660464   0.000000
   59        5.661764   0.000000
   60        5.662015   0.000000
   61        6.612359   0.000000
   62        6.612543   0.000000
   63        6.613357   0.000000
   64        6.613532   0.000000
   65        7.057001   0.000000
   66        7.057070   0.000000
   67        7.060025   0.000000
   68        7.060053   0.000000
   69        7.911882   0.000000
   70        7.911957   0.000000
   71        7.922775   0.000000
   72        7.922853   0.000000
   73        8.260445   0.000000
   74        8.260500   0.000000
   75        8.264638   0.000000
   76        8.264696   0.000000
   77        8.744550   0.000000
   78        8.744618   0.000000
   79        8.751692   0.000000
   80        8.751760   0.000000
   81        9.088774   0.000000
   82        9.088805   0.000000
   83        9.090040   0.000000
   84        9.090098   0.000000
   85       10.305849   0.000000
   86       10.305924   0.000000
   87       10.313867   0.000000
   88       10.313936   0.000000
   89       11.360394   0.000000
   90       11.360438   0.000000
   91       11.374806   0.000000
   92       11.374857   0.000000
   93       11.662669   0.000000
   94       11.662780   0.000000
   95       11.664346   0.000000
   96       11.664470   0.000000
   97       11.869276   0.000000
   98       11.869410   0.000000
   99       11.873882   0.000000
  100       11.874026   0.000000
  101       12.924869   0.000000
  102       12.924919   0.000000
  103       12.944151   0.000000
  104       12.944212   0.000000
  105       13.228020   0.000000
  106       13.228038   0.000000
  107       13.239844   0.000000
  108       13.239855   0.000000
  109       13.874741   0.000000
  110       13.874831   0.000000
  111       13.884049   0.000000
  112       13.884133   0.000000
  113       14.055314   0.000000
  114       14.055412   0.000000
  115       14.074278   0.000000
  116       14.074377   0.000000
  117       14.480893   0.000000
  118       14.480988   0.000000
  119       14.486962   0.000000
  120       14.487088   0.000000
  121       14.561629   0.000000
  122       14.561728   0.000000
  123       14.563603   0.000000
  124       14.563770   0.000000
  125       14.798043   0.000000
  126       14.798112   0.000000
  127       14.800634   0.000000
  128       14.800725   0.000000
  129       14.986475   0.000000
  130       14.986906   0.000000
  131       14.989641   0.000000
  132       14.989994   0.000000
  133       15.023497   0.000000
  134       15.024391   0.000000
  135       15.031819   0.000000
  136       15.032542   0.000000
  137       15.326446   0.000000
  138       15.329223   0.000000
  139       15.334616   0.000000
  140       15.355426   0.000000
  141       15.592708   0.000000
  142       15.608439   0.000000
  143       15.621867   0.000000
  144       15.639302   0.000000
 
  0.1000000E-01  0.5000000E+00  0.0000000E+00  0.4901961E-02
    1      -16.315371   1.000000
    2      -16.315268   1.000000
    3      -16.315158   1.000000
    4      -16.315055   1.000000
    5      -10.776932   1.000000
    6      -10.776853   1.000000
    7      -10.776656   1.000000
    8      -10.776577   1.000000
    9       -5.728445   1.000000
   10       -5.728400   1.000000
   11       -5.725930   1.000000
   12       -5.725885   1.000000
   13       -5.219149   1.000000
   14       -5.219075   1.000000
   15       -5.214569   1.000000
   16       -5.214496   1.000000
   17       -3.722387   1.000000
   18       -3.722256   1.000000
   19       -3.719217   1.000000
   20       -3.719086   1.000000
   21       -0.932529   0.000000
   22       -0.932402   0.000000
   23       -0.927782   0.000000
   24       -0.927654   0.000000
   25        0.440905   0.000000
   26        0.440996   0.000000
   27        0.457961   0.000000
   28        0.458048   0.000000
   29        0.704450   0.000000
   30        0.704616   0.000000
   31        0.722744   0.000000
   32        0.722905   0.000000
   33        3.025650   0.000000
   34        3.025710   0.000000
   35        3.025837   0.000000
   36        3.025892   0.000000
   37        3.535904   0.000000
   38        3.535925   0.000000
   39        3.536170   0.000000
   40        3.536173   0.000000
   41        3.761132   0.000000
   42        3.761155   0.000000
   43        3.761191   0.000000
   44        3.761210   0.000000
   45        4.360494   0.000000
   46        4.360886   0.000000
   47        4.360901   0.000000
   48        4.361315   0.000000
   49        4.879084   0.000000
   50        4.879206   0.000000
   51        4.879313   0.000000
   52        4.879453   0.000000
   53        5.513355   0.000000
   54        5.513433   0.000000
   55        5.513850   0.000000
   56        5.513927   0.000000
   57        5.662756   0.000000
   58        5.663022   0.000000
   59        5.663531   0.000000
   60        5.663778   0.000000
   61        6.612008   0.000000
   62        6.612143   0.000000
   63        6.612644   0.000000
   64        6.612770   0.000000
   65        7.065956   0.000000
   66        7.066026   0.000000
   67        7.067525   0.000000
   68        7.067553   0.000000
   69        7.920161   0.000000
   70        7.920250   0.000000
   71        7.926173   0.000000
   72        7.926263   0.000000
   73        8.242702   0.000000
   74        8.242766   0.000000
   75        8.245300   0.000000
   76        8.245367   0.000000
   77        8.738096   0.000000
   78        8.738163   0.000000
   79        8.741731   0.000000
   80        8.741798   0.000000
   81        9.084272   0.000000
   82        9.084302   0.000000
   83        9.084896   0.000000
   84        9.084954   0.000000
   85       10.347814   0.000000
   86       10.347887   0.000000
   87       10.352226   0.000000
   88       10.352292   0.000000
   89       11.340657   0.000000
   90       11.340720   0.000000
   91       11.348558   0.000000
   92       11.348625   0.000000
   93       11.650704   0.000000
   94       11.650793   0.000000
   95       11.651762   0.000000
   96       11.651855   0.000000
   97       11.853133   0.000000
   98       11.853267   0.000000
   99       11.855443   0.000000
  100       11.855588   0.000000
  101       13.043670   0.000000
  102       13.043729   0.000000
  103       13.060983   0.000000
  104       13.061060   0.000000
  105       13.213734   0.000000
  106       13.213777   0.000000
  107       13.226663   0.000000
  108       13.226686   0.000000
  109       13.885124   0.000000
  110       13.885128   0.000000
  111       13.889801   0.000000
  112       13.889814   0.000000
  113       14.049939   0.000000
  114       14.049974   0.000000
  115       14.058620   0.000000
  116       14.058655   0.000000
  117       14.532294   0.000000
  118       14.532380   0.000000
  119       14.537790   0.000000
  120       14.537849   0.000000
  121       14.730963   0.000000
  122       14.731360   0.000000
  123       14.737621   0.000000
  124       14.737983   0.000000
  125       14.808256   0.000000
  126       14.808460   0.000000
  127       14.809992   0.000000
  128       14.811072   0.000000
  129       15.028851   0.000000
  130       15.028910   0.000000
  131       15.029840   0.000000
  132       15.030788   0.000000
  133       15.091300   0.000000
  134       15.092592   0.000000
  135       15.094404   0.000000
  136       15.098770   0.000000
  137       15.231566   0.000000
  138       15.235441   0.000000
  139       15.239199   0.000000
  140       15.322396   0.000000
  141       15.496413   0.000000
  142       15.506135   0.000000
  143       15.529659   0.000000
  144       15.547473   0.000000
 
 -0.1040834E-16  0.5000000E+00  0.0000000E+00  0.4901961E-02
    1      -16.315905   1.000000
    2      -16.315905   1.000000
    3      -16.315760   1.000000
    4      -16.315760   1.000000
    5      -10.777201   1.000000
    6      -10.777201   1.000000
    7      -10.777077   1.000000
    8      -10.777077   1.000000
    9       -5.726658   1.000000
   10       -5.726657   1.000000
   11       -5.726608   1.000000
   12       -5.726608   1.000000
   13       -5.209629   1.000000
   14       -5.209629   1.000000
   15       -5.209463   1.000000
   16       -5.209463   1.000000
   17       -3.723654   1.000000
   18       -3.723654   1.000000
   19       -3.723516   1.000000
   20       -3.723516   1.000000
   21       -0.933479   0.000000
   22       -0.933479   0.000000
   23       -0.933332   0.000000
   24       -0.933332   0.000000
   25        0.451409   0.000000
   26        0.451409   0.000000
   27        0.451499   0.000000
   28        0.451499   0.000000
   29        0.710182   0.000000
   30        0.710182   0.000000
   31        0.710359   0.000000
   32        0.710359   0.000000
   33        3.024796   0.000000
   34        3.024808   0.000000
   35        3.024944   0.000000
   36        3.024962   0.000000
   37        3.535192   0.000000
   38        3.535207   0.000000
   39        3.535249   0.000000
   40        3.535260   0.000000
   41        3.760029   0.000000
   42        3.760059   0.000000
   43        3.760085   0.000000
   44        3.760098   0.000000
   45        4.360026   0.000000
   46        4.360076   0.000000
   47        4.360429   0.000000
   48        4.360480   0.000000
   49        4.878092   0.000000
   50        4.878161   0.000000
   51        4.878303   0.000000
   52        4.878379   0.000000
   53        5.511254   0.000000
   54        5.511259   0.000000
   55        5.511340   0.000000
   56        5.511345   0.000000
   57        5.663837   0.000000
   58        5.663878   0.000000
   59        5.664119   0.000000
   60        5.664170   0.000000
   61        6.611924   0.000000
   62        6.611974   0.000000
   63        6.612412   0.000000
   64        6.612446   0.000000
   65        7.069453   0.000000
   66        7.069494   0.000000
   67        7.069660   0.000000
   68        7.069701   0.000000
   69        7.925580   0.000000
   70        7.925580   0.000000
   71        7.925677   0.000000
   72        7.925678   0.000000
   73        8.237298   0.000000
   74        8.237309   0.000000
   75        8.237419   0.000000
   76        8.237431   0.000000
   77        8.737041   0.000000
   78        8.737074   0.000000
   79        8.737165   0.000000
   80        8.737197   0.000000
   81        9.082920   0.000000
   82        9.082952   0.000000
   83        9.083003   0.000000
   84        9.083057   0.000000
   85       10.364416   0.000000
   86       10.364433   0.000000
   87       10.364492   0.000000
   88       10.364506   0.000000
   89       11.335841   0.000000
   90       11.335841   0.000000
   91       11.335945   0.000000
   92       11.335945   0.000000
   93       11.646805   0.000000
   94       11.646844   0.000000
   95       11.647029   0.000000
   96       11.647073   0.000000
   97       11.848856   0.000000
   98       11.848886   0.000000
   99       11.848994   0.000000
  100       11.849031   0.000000
  101       13.118370   0.000000
  102       13.118373   0.000000
  103       13.118476   0.000000
  104       13.118479   0.000000
  105       13.190341   0.000000
  106       13.190341   0.000000
  107       13.190425   0.000000
  108       13.190429   0.000000
  109       13.881572   0.000000
  110       13.881583   0.000000
  111       13.881625   0.000000
  112       13.881638   0.000000
  113       14.060278   0.000000
  114       14.060302   0.000000
  115       14.060330   0.000000
  116       14.060353   0.000000
  117       14.546822   0.000000
  118       14.546880   0.000000
  119       14.546900   0.000000
  120       14.546937   0.000000
  121       14.775779   0.000000
  122       14.776014   0.000000
  123       14.776242   0.000000
  124       14.776298   0.000000
  125       14.900523   0.000000
  126       14.900937   0.000000
  127       14.901080   0.000000
  128       14.901303   0.000000
  129       14.973279   0.000000
  130       14.973529   0.000000
  131       14.973983   0.000000
  132       14.975759   0.000000
  133       15.143704   0.000000
  134       15.145173   0.000000
  135       15.147321   0.000000
  136       15.151317   0.000000
  137       15.192108   0.000000
  138       15.192125   0.000000
  139       15.194308   0.000000
  140       15.196417   0.000000
  141       15.448632   0.000000
  142       15.451096   0.000000
  143       15.458042   0.000000
  144       15.478157   0.000000
 
  0.0000000E+00  0.5000000E+00  0.0000000E+00  0.4901961E-02
    1      -16.315905   1.000000
    2      -16.315905   1.000000
    3      -16.315760   1.000000
    4      -16.315760   1.000000
    5      -10.777201   1.000000
    6      -10.777201   1.000000
    7      -10.777077   1.000000
    8      -10.777077   1.000000
    9       -5.726658   1.000000
   10       -5.726657   1.000000
   11       -5.726608   1.000000
   12       -5.726608   1.000000
   13       -5.209629   1.000000
   14       -5.209629   1.000000
   15       -5.209463   1.000000
   16       -5.209463   1.000000
   17       -3.723654   1.000000
   18       -3.723654   1.000000
   19       -3.723516   1.000000
   20       -3.723516   1.000000
   21       -0.933479   0.000000
   22       -0.933479   0.000000
   23       -0.933332   0.000000
   24       -0.933332   0.000000
   25        0.451409   0.000000
   26        0.451409   0.000000
   27        0.451499   0.000000
   28        0.451499   0.000000
   29        0.710182   0.000000
   30        0.710182   0.000000
   31        0.710359   0.000000
   32        0.710359   0.000000
   33        3.024796   0.000000
   34        3.024808   0.000000
   35        3.024944   0.000000
   36        3.024962   0.000000
   37        3.535192   0.000000
   38        3.535207   0.000000
   39        3.535249   0.000000
   40        3.535260   0.000000
   41        3.760029   0.000000
   42        3.760059   0.000000
   43        3.760085   0.000000
   44        3.760098   0.000000
   45        4.360026   0.000000
   46        4.360076   0.000000
   47        4.360429   0.000000
   48        4.360480   0.000000
   49        4.878092   0.000000
   50        4.878161   0.000000
   51        4.878303   0.000000
   52        4.878379   0.000000
   53        5.511254   0.000000
   54        5.511259   0.000000
   55        5.511340   0.000000
   56        5.511345   0.000000
   57        5.663837   0.000000
   58        5.663878   0.000000
   59        5.664119   0.000000
   60        5.664170   0.000000
   61        6.611924   0.000000
   62        6.611974   0.000000
   63        6.612412   0.000000
   64        6.612446   0.000000
   65        7.069453   0.000000
   66        7.069494   0.000000
   67        7.069660   0.000000
   68        7.069701   0.000000
   69        7.925580   0.000000
   70        7.925580   0.000000
   71        7.925677   0.000000
   72        7.925678   0.000000
   73        8.237298   0.000000
   74        8.237309   0.000000
   75        8.237419   0.000000
   76        8.237431   0.000000
   77        8.737041   0.000000
   78        8.737074   0.000000
   79        8.737165   0.000000
   80        8.737197   0.000000
   81        9.082920   0.000000
   82        9.082952   0.000000
   83        9.083003   0.000000
   84        9.083057   0.000000
   85       10.364416   0.000000
   86       10.364433   0.000000
   87       10.364492   0.000000
   88       10.364506   0.000000
   89       11.335841   0.000000
   90       11.335841   0.000000
   91       11.335945   0.000000
   92       11.335945   0.000000
   93       11.646805   0.000000
   94       11.646844   0.000000
   95       11.647029   0.000000
   96       11.647073   0.000000
   97       11.848856   0.000000
   98       11.848886   0.000000
   99       11.848994   0.000000
  100       11.849031   0.000000
  101       13.118370   0.000000
  102       13.118373   0.000000
  103       13.118476   0.000000
  104       13.118480   0.000000
  105       13.190341   0.000000
  106       13.190343   0.000000
  107       13.190426   0.000000
  108       13.190427   0.000000
  109       13.881572   0.000000
  110       13.881582   0.000000
  111       13.881625   0.000000
  112       13.881639   0.000000
  113       14.060281   0.000000
  114       14.060305   0.000000
  115       14.060326   0.000000
  116       14.060359   0.000000
  117       14.546798   0.000000
  118       14.546820   0.000000
  119       14.546903   0.000000
  120       14.546953   0.000000
  121       14.775761   0.000000
  122       14.775926   0.000000
  123       14.776188   0.000000
  124       14.776441   0.000000
  125       14.900518   0.000000
  126       14.900969   0.000000
  127       14.900991   0.000000
  128       14.901628   0.000000
  129       14.973290   0.000000
  130       14.973548   0.000000
  131       14.973773   0.000000
  132       14.974897   0.000000
  133       15.143932   0.000000
  134       15.144477   0.000000
  135       15.148625   0.000000
  136       15.157695   0.000000
  137       15.192484   0.000000
  138       15.193320   0.000000
  139       15.197114   0.000000
  140       15.221036   0.000000
  141       15.453130   0.000000
  142       15.456234   0.000000
  143       15.462253   0.000000
  144       15.466849   0.000000
 
  0.0000000E+00  0.4900000E+00  0.0000000E+00  0.4901961E-02
    1      -16.343435   1.000000
    2      -16.343435   1.000000
    3      -16.288302   1.000000
    4      -16.288302   1.000000
    5      -10.810967   1.000000
    6      -10.810966   1.000000
    7      -10.741694   1.000000
    8      -10.741693   1.000000
    9       -5.765547   1.000000
   10       -5.765547   1.000000
   11       -5.688448   1.000000
   12       -5.688448   1.000000
   13       -5.232254   1.000000
   14       -5.232253   1.000000
   15       -5.187098   1.000000
   16       -5.187098   1.000000
   17       -3.771774   1.000000
   18       -3.771772   1.000000
   19       -3.676545   1.000000
   20       -3.676542   1.000000
   21       -0.972506   0.000000
   22       -0.972502   0.000000
   23       -0.893504   0.000000
   24       -0.893500   0.000000
   25        0.397244   0.000000
   26        0.397245   0.000000
   27        0.505653   0.000000
   28        0.505654   0.000000
   29        0.684086   0.000000
   30        0.684086   0.000000
   31        0.738809   0.000000
   32        0.738810   0.000000
   33        2.977118   0.000000
   34        2.977131   0.000000
   35        3.067253   0.000000
   36        3.067268   0.000000
   37        3.497267   0.000000
   38        3.497310   0.000000
   39        3.562506   0.000000
   40        3.562547   0.000000
   41        3.718686   0.000000
   42        3.718722   0.000000
   43        3.818426   0.000000
   44        3.818474   0.000000
   45        4.308911   0.000000
   46        4.308957   0.000000
   47        4.409505   0.000000
   48        4.409551   0.000000
   49        4.840626   0.000000
   50        4.840696   0.000000
   51        4.916323   0.000000
   52        4.916389   0.000000
   53        5.440636   0.000000
   54        5.440642   0.000000
   55        5.582186   0.000000
   56        5.582191   0.000000
   57        5.627346   0.000000
   58        5.627377   0.000000
   59        5.703776   0.000000
   60        5.703801   0.000000
   61        6.589895   0.000000
   62        6.589913   0.000000
   63        6.625875   0.000000
   64        6.625928   0.000000
   65        7.071964   0.000000
   66        7.072037   0.000000
   67        7.078071   0.000000
   68        7.078103   0.000000
   69        7.870775   0.000000
   70        7.870775   0.000000
   71        7.980602   0.000000
   72        7.980602   0.000000
   73        8.186505   0.000000
   74        8.186514   0.000000
   75        8.294057   0.000000
   76        8.294069   0.000000
   77        8.709483   0.000000
   78        8.709510   0.000000
   79        8.753667   0.000000
   80        8.753694   0.000000
   81        9.056440   0.000000
   82        9.056475   0.000000
   83        9.125628   0.000000
   84        9.125678   0.000000
   85       10.314568   0.000000
   86       10.314583   0.000000
   87       10.411039   0.000000
   88       10.411052   0.000000
   89       11.235466   0.000000
   90       11.235467   0.000000
   91       11.434275   0.000000
   92       11.434276   0.000000
   93       11.615111   0.000000
   94       11.615141   0.000000
   95       11.667874   0.000000
   96       11.667925   0.000000
   97       11.816040   0.000000
   98       11.816081   0.000000
   99       11.895623   0.000000
  100       11.895645   0.000000
  101       13.047605   0.000000
  102       13.047609   0.000000
  103       13.147621   0.000000
  104       13.147622   0.000000
  105       13.178818   0.000000
  106       13.178820   0.000000
  107       13.205987   0.000000
  108       13.205997   0.000000
  109       13.884606   0.000000
  110       13.884639   0.000000
  111       13.889384   0.000000
  112       13.889395   0.000000
  113       14.004774   0.000000
  114       14.004780   0.000000
  115       14.131654   0.000000
  116       14.131702   0.000000
  117       14.517932   0.000000
  118       14.517983   0.000000
  119       14.567353   0.000000
  120       14.567411   0.000000
  121       14.746416   0.000000
  122       14.746504   0.000000
  123       14.768845   0.000000
  124       14.768965   0.000000
  125       14.889678   0.000000
  126       14.889943   0.000000
  127       14.908469   0.000000
  128       14.908646   0.000000
  129       14.949452   0.000000
  130       14.949722   0.000000
  131       15.026219   0.000000
  132       15.027272   0.000000
  133       15.112669   0.000000
  134       15.114476   0.000000
  135       15.134785   0.000000
  136       15.137872   0.000000
  137       15.181009   0.000000
  138       15.195708   0.000000
  139       15.253503   0.000000
  140       15.262784   0.000000
  141       15.427013   0.000000
  142       15.448639   0.000000
  143       15.476658   0.000000
  144       15.488824   0.000000
 
  0.0000000E+00  0.4800000E+00  0.0000000E+00  0.4901961E-02
    1      -16.371070   1.000000
    2      -16.371070   1.000000
    3      -16.260879   1.000000
    4      -16.260879   1.000000
    5      -10.843149   1.000000
    6      -10.843148   1.000000
    7      -10.704657   1.000000
    8      -10.704656   1.000000
    9       -5.805005   1.000000
   10       -5.805005   1.000000
   11       -5.651209   1.000000
   12       -5.651209   1.000000
   13       -5.255174   1.000000
   14       -5.255174   1.000000
   15       -5.164951   1.000000
   16       -5.164951   1.000000
   17       -3.820622   1.000000
   18       -3.820620   1.000000
   19       -3.631135   1.000000
   20       -3.631133   1.000000
   21       -1.010359   0.000000
   22       -1.010355   0.000000
   23       -0.853213   0.000000
   24       -0.853209   0.000000
   25        0.343309   0.000000
   26        0.343310   0.000000
   27        0.559110   0.000000
   28        0.559111   0.000000
   29        0.660880   0.000000
   30        0.660880   0.000000
   31        0.769537   0.000000
   32        0.769538   0.000000
   33        2.926536   0.000000
   34        2.926550   0.000000
   35        3.099966   0.000000
   36        3.099981   0.000000
   37        3.464097   0.000000
   38        3.464140   0.000000
   39        3.551610   0.000000
   40        3.551655   0.000000
   41        3.719836   0.000000
   42        3.719867   0.000000
   43        3.881641   0.000000
   44        3.881690   0.000000
   45        4.258418   0.000000
   46        4.258461   0.000000
   47        4.452769   0.000000
   48        4.452820   0.000000
   49        4.808986   0.000000
   50        4.809055   0.000000
   51        4.950130   0.000000
   52        4.950190   0.000000
   53        5.373771   0.000000
   54        5.373779   0.000000
   55        5.594835   0.000000
   56        5.594871   0.000000
   57        5.649144   0.000000
   58        5.649151   0.000000
   59        5.747104   0.000000
   60        5.747124   0.000000
   61        6.562534   0.000000
   62        6.562550   0.000000
   63        6.628749   0.000000
   64        6.628807   0.000000
   65        7.087133   0.000000
   66        7.087231   0.000000
   67        7.094929   0.000000
   68        7.094983   0.000000
   69        7.816162   0.000000
   70        7.816163   0.000000
   71        8.035560   0.000000
   72        8.035560   0.000000
   73        8.144071   0.000000
   74        8.144081   0.000000
   75        8.351728   0.000000
   76        8.351742   0.000000
   77        8.680957   0.000000
   78        8.680981   0.000000
   79        8.751377   0.000000
   80        8.751410   0.000000
   81        9.051911   0.000000
   82        9.051942   0.000000
   83        9.178332   0.000000
   84        9.178384   0.000000
   85       10.262625   0.000000
   86       10.262640   0.000000
   87       10.453208   0.000000
   88       10.453222   0.000000
   89       11.133601   0.000000
   90       11.133602   0.000000
   91       11.529471   0.000000
   92       11.529473   0.000000
   93       11.582359   0.000000
   94       11.582388   0.000000
   95       11.659873   0.000000
   96       11.659923   0.000000
   97       11.814652   0.000000
   98       11.814695   0.000000
   99       11.947030   0.000000
  100       11.947053   0.000000
  101       12.964095   0.000000
  102       12.964099   0.000000
  103       13.100299   0.000000
  104       13.100301   0.000000
  105       13.196193   0.000000
  106       13.196197   0.000000
  107       13.208641   0.000000
  108       13.208644   0.000000
  109       13.899152   0.000000
  110       13.899184   0.000000
  111       13.906167   0.000000
  112       13.906181   0.000000
  113       13.968520   0.000000
  114       13.968530   0.000000
  115       14.214320   0.000000
  116       14.214367   0.000000
  117       14.480367   0.000000
  118       14.480397   0.000000
  119       14.579522   0.000000
  120       14.579535   0.000000
  121       14.695201   0.000000
  122       14.695236   0.000000
  123       14.744255   0.000000
  124       14.744321   0.000000
  125       14.844049   0.000000
  126       14.844185   0.000000
  127       14.900383   0.000000
  128       14.900940   0.000000
  129       15.007476   0.000000
  130       15.008797   0.000000
  131       15.017226   0.000000
  132       15.018029   0.000000
  133       15.085212   0.000000
  134       15.088092   0.000000
  135       15.149558   0.000000
  136       15.154723   0.000000
  137       15.192846   0.000000
  138       15.197564   0.000000
  139       15.300003   0.000000
  140       15.317801   0.000000
  141       15.410715   0.000000
  142       15.439644   0.000000
  143       15.486449   0.000000
  144       15.527262   0.000000
 
  0.0000000E+00  0.4700000E+00  0.0000000E+00  0.4901961E-02
    1      -16.398701   1.000000
    2      -16.398701   1.000000
    3      -16.233607   1.000000
    4      -16.233607   1.000000
    5      -10.873662   1.000000
    6      -10.873661   1.000000
    7      -10.666060   1.000000
    8      -10.666059   1.000000
    9       -5.844855   1.000000
   10       -5.844854   1.000000
   11       -5.615181   1.000000
   12       -5.615181   1.000000
   13       -5.278259   1.000000
   14       -5.278259   1.000000
   15       -5.143146   1.000000
   16       -5.143145   1.000000
   17       -3.869640   1.000000
   18       -3.869638   1.000000
   19       -3.587847   1.000000
   20       -3.587845   1.000000
   21       -1.046511   0.000000
   22       -1.046507   0.000000
   23       -0.812945   0.000000
   24       -0.812940   0.000000
   25        0.289829   0.000000
   26        0.289830   0.000000
   27        0.606122   0.000000
   28        0.606124   0.000000
   29        0.646228   0.000000
   30        0.646228   0.000000
   31        0.802372   0.000000
   32        0.802372   0.000000
   33        2.874615   0.000000
   34        2.874630   0.000000
   35        3.116850   0.000000
   36        3.116868   0.000000
   37        3.444610   0.000000
   38        3.444651   0.000000
   39        3.506275   0.000000
   40        3.506324   0.000000
   41        3.758394   0.000000
   42        3.758427   0.000000
   43        3.944332   0.000000
   44        3.944381   0.000000
   45        4.212218   0.000000
   46        4.212259   0.000000
   47        4.483783   0.000000
   48        4.483843   0.000000
   49        4.790525   0.000000
   50        4.790592   0.000000
   51        4.973992   0.000000
   52        4.974042   0.000000
   53        5.314351   0.000000
   54        5.314363   0.000000
   55        5.568949   0.000000
   56        5.568991   0.000000
   57        5.706688   0.000000
   58        5.706696   0.000000
   59        5.795571   0.000000
   60        5.795585   0.000000
   61        6.533867   0.000000
   62        6.533881   0.000000
   63        6.620656   0.000000
   64        6.620718   0.000000
   65        7.114347   0.000000
   66        7.114584   0.000000
   67        7.118545   0.000000
   68        7.118734   0.000000
   69        7.761880   0.000000
   70        7.761881   0.000000
   71        8.090274   0.000000
   72        8.090274   0.000000
   73        8.111561   0.000000
   74        8.111573   0.000000
   75        8.400025   0.000000
   76        8.400045   0.000000
   77        8.664732   0.000000
   78        8.664750   0.000000
   79        8.730002   0.000000
   80        8.730040   0.000000
   81        9.068370   0.000000
   82        9.068398   0.000000
   83        9.237269   0.000000
   84        9.237323   0.000000
   85       10.209998   0.000000
   86       10.210012   0.000000
   87       10.489953   0.000000
   88       10.489969   0.000000
   89       11.030751   0.000000
   90       11.030752   0.000000
   91       11.549074   0.000000
   92       11.549102   0.000000
   93       11.620554   0.000000
   94       11.620559   0.000000
   95       11.626659   0.000000
   96       11.626704   0.000000
   97       11.843281   0.000000
   98       11.843328   0.000000
   99       12.000079   0.000000
  100       12.000103   0.000000
  101       12.873247   0.000000
  102       12.873252   0.000000
  103       13.040051   0.000000
  104       13.040051   0.000000
  105       13.165230   0.000000
  106       13.165233   0.000000
  107       13.214238   0.000000
  108       13.214240   0.000000
  109       13.906791   0.000000
  110       13.906805   0.000000
  111       13.944539   0.000000
  112       13.944543   0.000000
  113       13.953005   0.000000
  114       13.953017   0.000000
  115       14.304067   0.000000
  116       14.304134   0.000000
  117       14.434746   0.000000
  118       14.434781   0.000000
  119       14.579200   0.000000
  120       14.579212   0.000000
  121       14.645915   0.000000
  122       14.645979   0.000000
  123       14.714181   0.000000
  124       14.714239   0.000000
  125       14.784033   0.000000
  126       14.784324   0.000000
  127       14.905328   0.000000
  128       14.905806   0.000000
  129       14.952731   0.000000
  130       14.952820   0.000000
  131       15.053693   0.000000
  132       15.054539   0.000000
  133       15.092942   0.000000
  134       15.093275   0.000000
  135       15.187088   0.000000
  136       15.196817   0.000000
  137       15.223429   0.000000
  138       15.238447   0.000000
  139       15.299224   0.000000
  140       15.320254   0.000000
  141       15.432164   0.000000
  142       15.469151   0.000000
  143       15.529741   0.000000
  144       15.570798   0.000000
 
  0.0000000E+00  0.4600000E+00  0.0000000E+00  0.4901961E-02
    1      -16.426290   1.000000
    2      -16.426290   1.000000
    3      -16.206519   1.000000
    4      -16.206519   1.000000
    5      -10.902481   1.000000
    6      -10.902480   1.000000
    7      -10.625935   1.000000
    8      -10.625934   1.000000
    9       -5.884964   1.000000
   10       -5.884963   1.000000
   11       -5.580677   1.000000
   12       -5.580677   1.000000
   13       -5.301447   1.000000
   14       -5.301446   1.000000
   15       -5.121720   1.000000
   16       -5.121719   1.000000
   17       -3.918309   1.000000
   18       -3.918306   1.000000
   19       -3.547178   1.000000
   20       -3.547176   1.000000
   21       -1.080481   0.000000
   22       -1.080476   0.000000
   23       -0.773092   0.000000
   24       -0.773088   0.000000
   25        0.236970   0.000000
   26        0.236971   0.000000
   27        0.609469   0.000000
   28        0.609470   0.000000
   29        0.677226   0.000000
   30        0.677227   0.000000
   31        0.837281   0.000000
   32        0.837282   0.000000
   33        2.822275   0.000000
   34        2.822291   0.000000
   35        3.112961   0.000000
   36        3.112983   0.000000
   37        3.443932   0.000000
   38        3.443976   0.000000
   39        3.449877   0.000000
   40        3.449921   0.000000
   41        3.810181   0.000000
   42        3.810215   0.000000
   43        3.998370   0.000000
   44        3.998420   0.000000
   45        4.178374   0.000000
   46        4.178413   0.000000
   47        4.495560   0.000000
   48        4.495630   0.000000
   49        4.793059   0.000000
   50        4.793123   0.000000
   51        4.981560   0.000000
   52        4.981597   0.000000
   53        5.265945   0.000000
   54        5.265963   0.000000
   55        5.552964   0.000000
   56        5.553014   0.000000
   57        5.751712   0.000000
   58        5.751721   0.000000
   59        5.848413   0.000000
   60        5.848424   0.000000
   61        6.507698   0.000000
   62        6.507710   0.000000
   63        6.603369   0.000000
   64        6.603436   0.000000
   65        7.144480   0.000000
   66        7.144622   0.000000
   67        7.155470   0.000000
   68        7.155560   0.000000
   69        7.708020   0.000000
   70        7.708020   0.000000
   71        8.089495   0.000000
   72        8.089509   0.000000
   73        8.144737   0.000000
   74        8.144737   0.000000
   75        8.421700   0.000000
   76        8.421727   0.000000
   77        8.679202   0.000000
   78        8.679211   0.000000
   79        8.696209   0.000000
   80        8.696251   0.000000
   81        9.098164   0.000000
   82        9.098191   0.000000
   83        9.300361   0.000000
   84        9.300415   0.000000
   85       10.158315   0.000000
   86       10.158328   0.000000
   87       10.520445   0.000000
   88       10.520462   0.000000
   89       10.927388   0.000000
   90       10.927389   0.000000
   91       11.520736   0.000000
   92       11.520762   0.000000
   93       11.576120   0.000000
   94       11.576166   0.000000
   95       11.710595   0.000000
   96       11.710597   0.000000
   97       11.884957   0.000000
   98       11.885006   0.000000
   99       12.053406   0.000000
  100       12.053431   0.000000
  101       12.778874   0.000000
  102       12.778880   0.000000
  103       12.973192   0.000000
  104       12.973194   0.000000
  105       13.113711   0.000000
  106       13.113714   0.000000
  107       13.199867   0.000000
  108       13.199871   0.000000
  109       13.908400   0.000000
  110       13.908406   0.000000
  111       13.943709   0.000000
  112       13.943712   0.000000
  113       14.005767   0.000000
  114       14.005782   0.000000
  115       14.378578   0.000000
  116       14.378619   0.000000
  117       14.401771   0.000000
  118       14.401817   0.000000
  119       14.550946   0.000000
  120       14.550986   0.000000
  121       14.619684   0.000000
  122       14.619722   0.000000
  123       14.682279   0.000000
  124       14.682365   0.000000
  125       14.727719   0.000000
  126       14.727760   0.000000
  127       14.891574   0.000000
  128       14.891722   0.000000
  129       14.893010   0.000000
  130       14.893091   0.000000
  131       15.050058   0.000000
  132       15.050663   0.000000
  133       15.168584   0.000000
  134       15.169265   0.000000
  135       15.175160   0.000000
  136       15.178111   0.000000
  137       15.264598   0.000000
  138       15.266715   0.000000
  139       15.311823   0.000000
  140       15.314897   0.000000
  141       15.490712   0.000000
  142       15.517712   0.000000
  143       15.554190   0.000000
  144       15.586195   0.000000
 
  0.0000000E+00  0.4500000E+00  0.0000000E+00  0.4901961E-02
    1      -16.453801   1.000000
    2      -16.453801   1.000000
    3      -16.179660   1.000000
    4      -16.179660   1.000000
    5      -10.929586   1.000000
    6      -10.929585   1.000000
    7      -10.584316   1.000000
    8      -10.584315   1.000000
    9       -5.925225   1.000000
   10       -5.925225   1.000000
   11       -5.548090   1.000000
   12       -5.548089   1.000000
   13       -5.324658   1.000000
   14       -5.324657   1.000000
   15       -5.100711   1.000000
   16       -5.100710   1.000000
   17       -3.966091   1.000000
   18       -3.966089   1.000000
   19       -3.509630   1.000000
   20       -3.509628   1.000000
   21       -1.111773   0.000000
   22       -1.111769   0.000000
   23       -0.734056   0.000000
   24       -0.734051   0.000000
   25        0.184893   0.000000
   26        0.184894   0.000000
   27        0.593914   0.000000
   28        0.593915   0.000000
   29        0.728972   0.000000
   30        0.728974   0.000000
   31        0.874223   0.000000
   32        0.874224   0.000000
   33        2.770123   0.000000
   34        2.770139   0.000000
   35        3.089589   0.000000
   36        3.089615   0.000000
   37        3.390056   0.000000
   38        3.390108   0.000000
   39        3.461021   0.000000
   40        3.461055   0.000000
   41        3.865684   0.000000
   42        3.865717   0.000000
   43        4.023105   0.000000
   44        4.023153   0.000000
   45        4.178106   0.000000
   46        4.178150   0.000000
   47        4.487088   0.000000
   48        4.487165   0.000000
   49        4.818433   0.000000
   50        4.818496   0.000000
   51        4.969031   0.000000
   52        4.969054   0.000000
   53        5.229389   0.000000
   54        5.229413   0.000000
   55        5.550552   0.000000
   56        5.550610   0.000000
   57        5.785780   0.000000
   58        5.785789   0.000000
   59        5.899523   0.000000
   60        5.899533   0.000000
   61        6.488064   0.000000
   62        6.488075   0.000000
   63        6.579450   0.000000
   64        6.579522   0.000000
   65        7.176860   0.000000
   66        7.176950   0.000000
   67        7.203452   0.000000
   68        7.203490   0.000000
   69        7.654631   0.000000
   70        7.654631   0.000000
   71        8.078072   0.000000
   72        8.078089   0.000000
   73        8.198423   0.000000
   74        8.198423   0.000000
   75        8.410264   0.000000
   76        8.410295   0.000000
   77        8.656701   0.000000
   78        8.656743   0.000000
   79        8.731130   0.000000
   80        8.731135   0.000000
   81        9.133473   0.000000
   82        9.133500   0.000000
   83        9.366434   0.000000
   84        9.366489   0.000000
   85       10.109483   0.000000
   86       10.109495   0.000000
   87       10.544040   0.000000
   88       10.544059   0.000000
   89       10.823963   0.000000
   90       10.823964   0.000000
   91       11.495336   0.000000
   92       11.495360   0.000000
   93       11.524655   0.000000
   94       11.524702   0.000000
   95       11.791148   0.000000
   96       11.791149   0.000000
   97       11.931482   0.000000
   98       11.931531   0.000000
   99       12.105895   0.000000
  100       12.105921   0.000000
  101       12.684151   0.000000
  102       12.684158   0.000000
  103       12.902465   0.000000
  104       12.902467   0.000000
  105       13.049809   0.000000
  106       13.049812   0.000000
  107       13.170296   0.000000
  108       13.170300   0.000000
  109       13.904345   0.000000
  110       13.904350   0.000000
  111       13.938901   0.000000
  112       13.938910   0.000000
  113       14.074342   0.000000
  114       14.074354   0.000000
  115       14.324255   0.000000
  116       14.324291   0.000000
  117       14.493210   0.000000
  118       14.493241   0.000000
  119       14.504222   0.000000
  120       14.504265   0.000000
  121       14.608966   0.000000
  122       14.609001   0.000000
  123       14.650129   0.000000
  124       14.650172   0.000000
  125       14.674672   0.000000
  126       14.674719   0.000000
  127       14.831593   0.000000
  128       14.831705   0.000000
  129       14.867842   0.000000
  130       14.867941   0.000000
  131       15.068701   0.000000
  132       15.068857   0.000000
  133       15.166257   0.000000
  134       15.168412   0.000000
  135       15.203040   0.000000
  136       15.205105   0.000000
  137       15.263940   0.000000
  138       15.274519   0.000000
  139       15.389788   0.000000
  140       15.397361   0.000000
  141       15.524943   0.000000
  142       15.532838   0.000000
  143       15.613766   0.000000
  144       15.636930   0.000000
 
  0.0000000E+00  0.4400000E+00  0.0000000E+00  0.4901961E-02
    1      -16.481198   1.000000
    2      -16.481198   1.000000
    3      -16.153065   1.000000
    4      -16.153065   1.000000
    5      -10.954958   1.000000
    6      -10.954957   1.000000
    7      -10.541234   1.000000
    8      -10.541233   1.000000
    9       -5.965542   1.000000
   10       -5.965542   1.000000
   11       -5.517909   1.000000
   12       -5.517908   1.000000
   13       -5.347768   1.000000
   14       -5.347767   1.000000
   15       -5.080153   1.000000
   16       -5.080152   1.000000
   17       -4.012406   1.000000
   18       -4.012404   1.000000
   19       -3.475707   1.000000
   20       -3.475704   1.000000
   21       -1.139882   0.000000
   22       -1.139877   0.000000
   23       -0.696244   0.000000
   24       -0.696239   0.000000
   25        0.133790   0.000000
   26        0.133790   0.000000
   27        0.578614   0.000000
   28        0.578614   0.000000
   29        0.782180   0.000000
   30        0.782182   0.000000
   31        0.913140   0.000000
   32        0.913141   0.000000
   33        2.718589   0.000000
   34        2.718606   0.000000
   35        3.052886   0.000000
   36        3.052915   0.000000
   37        3.330161   0.000000
   38        3.330213   0.000000
   39        3.487534   0.000000
   40        3.487566   0.000000
   41        3.921058   0.000000
   42        3.921092   0.000000
   43        4.009453   0.000000
   44        4.009496   0.000000
   45        4.221551   0.000000
   46        4.221600   0.000000
   47        4.465514   0.000000
   48        4.465595   0.000000
   49        4.860591   0.000000
   50        4.860660   0.000000
   51        4.939552   0.000000
   52        4.939564   0.000000
   53        5.200207   0.000000
   54        5.200236   0.000000
   55        5.563841   0.000000
   56        5.563908   0.000000
   57        5.811550   0.000000
   58        5.811558   0.000000
   59        5.941276   0.000000
   60        5.941288   0.000000
   61        6.479308   0.000000
   62        6.479325   0.000000
   63        6.551388   0.000000
   64        6.551468   0.000000
   65        7.214069   0.000000
   66        7.214144   0.000000
   67        7.258181   0.000000
   68        7.258205   0.000000
   69        7.601796   0.000000
   70        7.601797   0.000000
   71        8.076411   0.000000
   72        8.076431   0.000000
   73        8.251082   0.000000
   74        8.251082   0.000000
   75        8.378793   0.000000
   76        8.378826   0.000000
   77        8.615965   0.000000
   78        8.616008   0.000000
   79        8.807278   0.000000
   80        8.807281   0.000000
   81        9.168677   0.000000
   82        9.168703   0.000000
   83        9.434787   0.000000
   84        9.434843   0.000000
   85       10.065881   0.000000
   86       10.065893   0.000000
   87       10.560385   0.000000
   88       10.560406   0.000000
   89       10.721051   0.000000
   90       10.721052   0.000000
   91       11.469808   0.000000
   92       11.469846   0.000000
   93       11.474894   0.000000
   94       11.474916   0.000000
   95       11.862019   0.000000
   96       11.862020   0.000000
   97       11.979602   0.000000
   98       11.979650   0.000000
   99       12.155783   0.000000
  100       12.155809   0.000000
  101       12.592624   0.000000
  102       12.592631   0.000000
  103       12.829713   0.000000
  104       12.829716   0.000000
  105       12.981834   0.000000
  106       12.981836   0.000000
  107       13.131317   0.000000
  108       13.131320   0.000000
  109       13.892600   0.000000
  110       13.892607   0.000000
  111       13.930835   0.000000
  112       13.930845   0.000000
  113       14.137345   0.000000
  114       14.137360   0.000000
  115       14.273976   0.000000
  116       14.274008   0.000000
  117       14.449047   0.000000
  118       14.449095   0.000000
  119       14.587542   0.000000
  120       14.587583   0.000000
  121       14.597177   0.000000
  122       14.597242   0.000000
  123       14.619949   0.000000
  124       14.619973   0.000000
  125       14.624091   0.000000
  126       14.624141   0.000000
  127       14.773127   0.000000
  128       14.773190   0.000000
  129       14.844635   0.000000
  130       14.844713   0.000000
  131       15.101047   0.000000
  132       15.103891   0.000000
  133       15.149675   0.000000
  134       15.151101   0.000000
  135       15.168267   0.000000
  136       15.170265   0.000000
  137       15.342213   0.000000
  138       15.347418   0.000000
  139       15.478156   0.000000
  140       15.495564   0.000000
  141       15.549724   0.000000
  142       15.589315   0.000000
  143       15.666042   0.000000
  144       15.689889   0.000000
 
  0.0000000E+00  0.4300000E+00  0.0000000E+00  0.4901961E-02
    1      -16.508444   1.000000
    2      -16.508444   1.000000
    3      -16.126772   1.000000
    4      -16.126772   1.000000
    5      -10.978582   1.000000
    6      -10.978581   1.000000
    7      -10.496726   1.000000
    8      -10.496725   1.000000
    9       -6.005836   1.000000
   10       -6.005836   1.000000
   11       -5.490817   1.000000
   12       -5.490816   1.000000
   13       -5.370528   1.000000
   14       -5.370526   1.000000
   15       -5.060082   1.000000
   16       -5.060082   1.000000
   17       -4.056635   1.000000
   18       -4.056633   1.000000
   19       -3.445908   1.000000
   20       -3.445905   1.000000
   21       -1.164302   0.000000
   22       -1.164297   0.000000
   23       -0.660100   0.000000
   24       -0.660094   0.000000
   25        0.083885   0.000000
   26        0.083885   0.000000
   27        0.565026   0.000000
   28        0.565027   0.000000
   29        0.835265   0.000000
   30        0.835267   0.000000
   31        0.953957   0.000000
   32        0.953958   0.000000
   33        2.668004   0.000000
   34        2.668021   0.000000
   35        3.008591   0.000000
   36        3.008623   0.000000
   37        3.270776   0.000000
   38        3.270827   0.000000
   39        3.515881   0.000000
   40        3.515911   0.000000
   41        3.973190   0.000000
   42        3.973258   0.000000
   43        3.982732   0.000000
   44        3.982750   0.000000
   45        4.285096   0.000000
   46        4.285145   0.000000
   47        4.439697   0.000000
   48        4.439779   0.000000
   49        4.900205   0.000000
   50        4.900312   0.000000
   51        4.913156   0.000000
   52        4.913204   0.000000
   53        5.172316   0.000000
   54        5.172347   0.000000
   55        5.591909   0.000000
   56        5.591983   0.000000
   57        5.830528   0.000000
   58        5.830535   0.000000
   59        5.967857   0.000000
   60        5.967871   0.000000
   61        6.485125   0.000000
   62        6.485174   0.000000
   63        6.521385   0.000000
   64        6.521497   0.000000
   65        7.257076   0.000000
   66        7.257143   0.000000
   67        7.317773   0.000000
   68        7.317793   0.000000
   69        7.549566   0.000000
   70        7.549566   0.000000
   71        8.082963   0.000000
   72        8.082987   0.000000
   73        8.301488   0.000000
   74        8.301489   0.000000
   75        8.339717   0.000000
   76        8.339749   0.000000
   77        8.576945   0.000000
   78        8.576987   0.000000
   79        8.895619   0.000000
   80        8.895622   0.000000
   81        9.199526   0.000000
   82        9.199551   0.000000
   83        9.504952   0.000000
   84        9.505009   0.000000
   85       10.030334   0.000000
   86       10.030345   0.000000
   87       10.568818   0.000000
   88       10.568841   0.000000
   89       10.619897   0.000000
   90       10.619898   0.000000
   91       11.417758   0.000000
   92       11.417805   0.000000
   93       11.453508   0.000000
   94       11.453523   0.000000
   95       11.918712   0.000000
   96       11.918713   0.000000
   97       12.027381   0.000000
   98       12.027426   0.000000
   99       12.198667   0.000000
  100       12.198696   0.000000
  101       12.510305   0.000000
  102       12.510314   0.000000
  103       12.756202   0.000000
  104       12.756204   0.000000
  105       12.918271   0.000000
  106       12.918273   0.000000
  107       13.087666   0.000000
  108       13.087671   0.000000
  109       13.871971   0.000000
  110       13.871981   0.000000
  111       13.917713   0.000000
  112       13.917724   0.000000
  113       14.139385   0.000000
  114       14.139402   0.000000
  115       14.278959   0.000000
  116       14.278982   0.000000
  117       14.396603   0.000000
  118       14.396652   0.000000
  119       14.570130   0.000000
  120       14.570156   0.000000
  121       14.574782   0.000000
  122       14.574835   0.000000
  123       14.592939   0.000000
  124       14.592974   0.000000
  125       14.665890   0.000000
  126       14.665926   0.000000
  127       14.737265   0.000000
  128       14.737346   0.000000
  129       14.827546   0.000000
  130       14.827562   0.000000
  131       15.086881   0.000000
  132       15.087501   0.000000
  133       15.142444   0.000000
  134       15.144221   0.000000
  135       15.183066   0.000000
  136       15.189715   0.000000
  137       15.417872   0.000000
  138       15.421913   0.000000
  139       15.523218   0.000000
  140       15.550355   0.000000
  141       15.569863   0.000000
  142       15.605727   0.000000
  143       15.661025   0.000000
  144       15.703865   0.000000
 
  0.0000000E+00  0.4200000E+00  0.0000000E+00  0.4901961E-02
    1      -16.535509   1.000000
    2      -16.535508   1.000000
    3      -16.100817   1.000000
    4      -16.100817   1.000000
    5      -11.000445   1.000000
    6      -11.000444   1.000000
    7      -10.450830   1.000000
    8      -10.450829   1.000000
    9       -6.046040   1.000000
   10       -6.046040   1.000000
   11       -5.468023   1.000000
   12       -5.468021   1.000000
   13       -5.392232   1.000000
   14       -5.392228   1.000000
   15       -5.040533   1.000000
   16       -5.040533   1.000000
   17       -4.098107   1.000000
   18       -4.098104   1.000000
   19       -3.420712   1.000000
   20       -3.420710   1.000000
   21       -1.184545   0.000000
   22       -1.184540   0.000000
   23       -0.626114   0.000000
   24       -0.626108   0.000000
   25        0.035469   0.000000
   26        0.035470   0.000000
   27        0.553422   0.000000
   28        0.553422   0.000000
   29        0.887846   0.000000
   30        0.887848   0.000000
   31        0.996544   0.000000
   32        0.996545   0.000000
   33        2.618639   0.000000
   34        2.618656   0.000000
   35        2.960298   0.000000
   36        2.960333   0.000000
   37        3.212319   0.000000
   38        3.212370   0.000000
   39        3.539354   0.000000
   40        3.539386   0.000000
   41        3.958594   0.000000
   42        3.958637   0.000000
   43        4.018705   0.000000
   44        4.018733   0.000000
   45        4.354779   0.000000
   46        4.354829   0.000000
   47        4.417228   0.000000
   48        4.417308   0.000000
   49        4.860203   0.000000
   50        4.860220   0.000000
   51        4.969637   0.000000
   52        4.969679   0.000000
   53        5.142848   0.000000
   54        5.142881   0.000000
   55        5.631425   0.000000
   56        5.631503   0.000000
   57        5.843570   0.000000
   58        5.843578   0.000000
   59        5.976885   0.000000
   60        5.976902   0.000000
   61        6.489596   0.000000
   62        6.489673   0.000000
   63        6.508594   0.000000
   64        6.508728   0.000000
   65        7.306678   0.000000
   66        7.306740   0.000000
   67        7.380802   0.000000
   68        7.380822   0.000000
   69        7.498000   0.000000
   70        7.498001   0.000000
   71        8.095392   0.000000
   72        8.095420   0.000000
   73        8.293923   0.000000
   74        8.293954   0.000000
   75        8.353747   0.000000
   76        8.353748   0.000000
   77        8.542135   0.000000
   78        8.542175   0.000000
   79        8.990160   0.000000
   80        8.990163   0.000000
   81        9.222538   0.000000
   82        9.222563   0.000000
   83        9.576584   0.000000
   84        9.576641   0.000000
   85       10.005945   0.000000
   86       10.005956   0.000000
   87       10.516355   0.000000
   88       10.516357   0.000000
   89       10.574602   0.000000
   90       10.574629   0.000000
   91       11.364350   0.000000
   92       11.364395   0.000000
   93       11.434598   0.000000
   94       11.434611   0.000000
   95       11.955208   0.000000
   96       11.955209   0.000000
   97       12.073060   0.000000
   98       12.073101   0.000000
   99       12.221977   0.000000
  100       12.222007   0.000000
  101       12.451404   0.000000
  102       12.451415   0.000000
  103       12.682838   0.000000
  104       12.682840   0.000000
  105       12.867986   0.000000
  106       12.867987   0.000000
  107       13.043162   0.000000
  108       13.043168   0.000000
  109       13.843659   0.000000
  110       13.843670   0.000000
  111       13.898425   0.000000
  112       13.898439   0.000000
  113       14.078504   0.000000
  114       14.078524   0.000000
  115       14.330549   0.000000
  116       14.330567   0.000000
  117       14.344947   0.000000
  118       14.345014   0.000000
  119       14.524778   0.000000
  120       14.524817   0.000000
  121       14.539586   0.000000
  122       14.539621   0.000000
  123       14.579757   0.000000
  124       14.579805   0.000000
  125       14.636104   0.000000
  126       14.636174   0.000000
  127       14.805334   0.000000
  128       14.805569   0.000000
  129       14.815956   0.000000
  130       14.816041   0.000000
  131       15.021026   0.000000
  132       15.021618   0.000000
  133       15.191920   0.000000
  134       15.196211   0.000000
  135       15.209245   0.000000
  136       15.211079   0.000000
  137       15.434746   0.000000
  138       15.451361   0.000000
  139       15.548620   0.000000
  140       15.579525   0.000000
  141       15.596505   0.000000
  142       15.636140   0.000000
  143       15.652315   0.000000
  144       15.685191   0.000000
 
  0.0000000E+00  0.4100000E+00  0.0000000E+00  0.4901961E-02
    1      -16.562355   1.000000
    2      -16.562355   1.000000
    3      -16.075241   1.000000
    4      -16.075241   1.000000
    5      -11.020537   1.000000
    6      -11.020536   1.000000
    7      -10.403582   1.000000
    8      -10.403581   1.000000
    9       -6.086100   1.000000
   10       -6.086100   1.000000
   11       -5.453071   1.000000
   12       -5.453066   1.000000
   13       -5.409892   1.000000
   14       -5.409887   1.000000
   15       -5.021536   1.000000
   16       -5.021535   1.000000
   17       -4.136113   1.000000
   18       -4.136110   1.000000
   19       -3.400558   1.000000
   20       -3.400555   1.000000
   21       -1.200159   0.000000
   22       -1.200154   0.000000
   23       -0.594870   0.000000
   24       -0.594863   0.000000
   25       -0.011062   0.000000
   26       -0.011061   0.000000
   27        0.543883   0.000000
   28        0.543883   0.000000
   29        0.939768   0.000000
   30        0.939770   0.000000
   31        1.040718   0.000000
   32        1.040719   0.000000
   33        2.570733   0.000000
   34        2.570751   0.000000
   35        2.910027   0.000000
   36        2.910062   0.000000
   37        3.155015   0.000000
   38        3.155066   0.000000
   39        3.552413   0.000000
   40        3.552447   0.000000
   41        3.944343   0.000000
   42        3.944379   0.000000
   43        4.051824   0.000000
   44        4.051857   0.000000
   45        4.405312   0.000000
   46        4.405390   0.000000
   47        4.425591   0.000000
   48        4.425636   0.000000
   49        4.823038   0.000000
   50        4.823049   0.000000
   51        5.028916   0.000000
   52        5.028964   0.000000
   53        5.111976   0.000000
   54        5.112010   0.000000
   55        5.678408   0.000000
   56        5.678488   0.000000
   57        5.851362   0.000000
   58        5.851370   0.000000
   59        5.970125   0.000000
   60        5.970143   0.000000
   61        6.461016   0.000000
   62        6.461050   0.000000
   63        6.544472   0.000000
   64        6.544512   0.000000
   65        7.363227   0.000000
   66        7.363286   0.000000
   67        7.443013   0.000000
   68        7.443025   0.000000
   69        7.450237   0.000000
   70        7.450246   0.000000
   71        8.110535   0.000000
   72        8.110568   0.000000
   73        8.250867   0.000000
   74        8.250897   0.000000
   75        8.400421   0.000000
   76        8.400421   0.000000
   77        8.514211   0.000000
   78        8.514250   0.000000
   79        9.087663   0.000000
   80        9.087666   0.000000
   81        9.235101   0.000000
   82        9.235125   0.000000
   83        9.649399   0.000000
   84        9.649456   0.000000
   85        9.995561   0.000000
   86        9.995572   0.000000
   87       10.418781   0.000000
   88       10.418782   0.000000
   89       10.570949   0.000000
   90       10.570979   0.000000
   91       11.311208   0.000000
   92       11.311254   0.000000
   93       11.415186   0.000000
   94       11.415196   0.000000
   95       11.964955   0.000000
   96       11.964956   0.000000
   97       12.114463   0.000000
   98       12.114496   0.000000
   99       12.204662   0.000000
  100       12.204700   0.000000
  101       12.438900   0.000000
  102       12.438920   0.000000
  103       12.610285   0.000000
  104       12.610286   0.000000
  105       12.839381   0.000000
  106       12.839382   0.000000
  107       13.001073   0.000000
  108       13.001080   0.000000
  109       13.809668   0.000000
  110       13.809680   0.000000
  111       13.872943   0.000000
  112       13.872960   0.000000
  113       14.002049   0.000000
  114       14.002069   0.000000
  115       14.293418   0.000000
  116       14.293465   0.000000
  117       14.364845   0.000000
  118       14.364863   0.000000
  119       14.475486   0.000000
  120       14.475540   0.000000
  121       14.502559   0.000000
  122       14.502596   0.000000
  123       14.580218   0.000000
  124       14.580293   0.000000
  125       14.593239   0.000000
  126       14.593251   0.000000
  127       14.805315   0.000000
  128       14.805463   0.000000
  129       14.901033   0.000000
  130       14.901149   0.000000
  131       14.955643   0.000000
  132       14.955805   0.000000
  133       15.239889   0.000000
  134       15.243604   0.000000
  135       15.246168   0.000000
  136       15.252677   0.000000
  137       15.364696   0.000000
  138       15.365731   0.000000
  139       15.543974   0.000000
  140       15.566873   0.000000
  141       15.618754   0.000000
  142       15.624847   0.000000
  143       15.653066   0.000000
  144       15.722780   0.000000
 
  0.0000000E+00  0.4000000E+00  0.0000000E+00  0.4901961E-02
    1      -16.588952   1.000000
    2      -16.588952   1.000000
    3      -16.050076   1.000000
    4      -16.050076   1.000000
    5      -11.038852   1.000000
    6      -11.038851   1.000000
    7      -10.355020   1.000000
    8      -10.355019   1.000000
    9       -6.125964   1.000000
   10       -6.125964   1.000000
   11       -5.456098   1.000000
   12       -5.456094   1.000000
   13       -5.413958   1.000000
   14       -5.413953   1.000000
   15       -5.003120   1.000000
   16       -5.003120   1.000000
   17       -4.169914   1.000000
   18       -4.169911   1.000000
   19       -3.385827   1.000000
   20       -3.385824   1.000000
   21       -1.210745   0.000000
   22       -1.210740   0.000000
   23       -0.567093   0.000000
   24       -0.567085   0.000000
   25       -0.055156   0.000000
   26       -0.055154   0.000000
   27        0.536438   0.000000
   28        0.536438   0.000000
   29        0.990960   0.000000
   30        0.990963   0.000000
   31        1.086232   0.000000
   32        1.086234   0.000000
   33        2.524513   0.000000
   34        2.524531   0.000000
   35        2.858917   0.000000
   36        2.858954   0.000000
   37        3.099004   0.000000
   38        3.099054   0.000000
   39        3.551650   0.000000
   40        3.551687   0.000000
   41        3.942599   0.000000
   42        3.942629   0.000000
   43        4.067243   0.000000
   44        4.067284   0.000000
   45        4.410358   0.000000
   46        4.410427   0.000000
   47        4.493932   0.000000
   48        4.493977   0.000000
   49        4.793637   0.000000
   50        4.793647   0.000000
   51        5.081127   0.000000
   52        5.081160   0.000000
   53        5.088926   0.000000
   54        5.088976   0.000000
   55        5.729191   0.000000
   56        5.729273   0.000000
   57        5.854313   0.000000
   58        5.854322   0.000000
   59        5.952272   0.000000
   60        5.952291   0.000000
   61        6.434839   0.000000
   62        6.434885   0.000000
   63        6.591117   0.000000
   64        6.591147   0.000000
   65        7.396200   0.000000
   66        7.396201   0.000000
   67        7.426891   0.000000
   68        7.426947   0.000000
   69        7.512935   0.000000
   70        7.512956   0.000000
   71        8.124514   0.000000
   72        8.124554   0.000000
   73        8.208704   0.000000
   74        8.208731   0.000000
   75        8.444262   0.000000
   76        8.444263   0.000000
   77        8.496368   0.000000
   78        8.496403   0.000000
   79        9.185859   0.000000
   80        9.185864   0.000000
   81        9.236250   0.000000
   82        9.236271   0.000000
   83        9.723131   0.000000
   84        9.723188   0.000000
   85       10.000892   0.000000
   86       10.000903   0.000000
   87       10.323730   0.000000
   88       10.323731   0.000000
   89       10.563332   0.000000
   90       10.563364   0.000000
   91       11.258586   0.000000
   92       11.258631   0.000000
   93       11.393365   0.000000
   94       11.393372   0.000000
   95       11.944194   0.000000
   96       11.944195   0.000000
   97       12.140600   0.000000
   98       12.140681   0.000000
   99       12.161599   0.000000
  100       12.161720   0.000000
  101       12.468313   0.000000
  102       12.468340   0.000000
  103       12.539064   0.000000
  104       12.539065   0.000000
  105       12.837615   0.000000
  106       12.837616   0.000000
  107       12.964510   0.000000
  108       12.964519   0.000000
  109       13.771834   0.000000
  110       13.771848   0.000000
  111       13.842181   0.000000
  112       13.842198   0.000000
  113       13.919597   0.000000
  114       13.919615   0.000000
  115       14.242688   0.000000
  116       14.242737   0.000000
  117       14.364593   0.000000
  118       14.364619   0.000000
  119       14.425928   0.000000
  120       14.425981   0.000000
  121       14.462657   0.000000
  122       14.462692   0.000000
  123       14.523383   0.000000
  124       14.523456   0.000000
  125       14.630833   0.000000
  126       14.630868   0.000000
  127       14.794946   0.000000
  128       14.794970   0.000000
  129       14.900555   0.000000
  130       14.900674   0.000000
  131       14.997321   0.000000
  132       14.997746   0.000000
  133       15.269537   0.000000
  134       15.269743   0.000000
  135       15.288652   0.000000
  136       15.291985   0.000000
  137       15.302380   0.000000
  138       15.306428   0.000000
  139       15.482780   0.000000
  140       15.489946   0.000000
  141       15.573154   0.000000
  142       15.617214   0.000000
  143       15.714081   0.000000
  144       15.766805   0.000000
 
  0.0000000E+00  0.3900000E+00  0.0000000E+00  0.4901961E-02
    1      -16.615267   1.000000
    2      -16.615267   1.000000
    3      -16.025359   1.000000
    4      -16.025359   1.000000
    5      -11.055388   1.000000
    6      -11.055387   1.000000
    7      -10.305186   1.000000
    8      -10.305185   1.000000
    9       -6.165595   1.000000
   10       -6.165595   1.000000
   11       -5.473942   1.000000
   12       -5.473939   1.000000
   13       -5.408199   1.000000
   14       -5.408195   1.000000
   15       -4.985311   1.000000
   16       -4.985311   1.000000
   17       -4.198786   1.000000
   18       -4.198783   1.000000
   19       -3.376817   1.000000
   20       -3.376814   1.000000
   21       -1.215988   0.000000
   22       -1.215982   0.000000
   23       -0.543722   0.000000
   24       -0.543714   0.000000
   25       -0.096032   0.000000
   26       -0.096030   0.000000
   27        0.531093   0.000000
   28        0.531093   0.000000
   29        1.041381   0.000000
   30        1.041383   0.000000
   31        1.132783   0.000000
   32        1.132784   0.000000
   33        2.480205   0.000000
   34        2.480224   0.000000
   35        2.807645   0.000000
   36        2.807683   0.000000
   37        3.044383   0.000000
   38        3.044433   0.000000
   39        3.537150   0.000000
   40        3.537190   0.000000
   41        3.952186   0.000000
   42        3.952212   0.000000
   43        4.063455   0.000000
   44        4.063503   0.000000
   45        4.434144   0.000000
   46        4.434202   0.000000
   47        4.554651   0.000000
   48        4.554691   0.000000
   49        4.777391   0.000000
   50        4.777405   0.000000
   51        5.052979   0.000000
   52        5.053012   0.000000
   53        5.147964   0.000000
   54        5.148017   0.000000
   55        5.780427   0.000000
   56        5.780510   0.000000
   57        5.851523   0.000000
   58        5.851531   0.000000
   59        5.929884   0.000000
   60        5.929902   0.000000
   61        6.413646   0.000000
   62        6.413699   0.000000
   63        6.644099   0.000000
   64        6.644126   0.000000
   65        7.346851   0.000000
   66        7.346851   0.000000
   67        7.495754   0.000000
   68        7.495809   0.000000
   69        7.579101   0.000000
   70        7.579122   0.000000
   71        8.133374   0.000000
   72        8.133424   0.000000
   73        8.169538   0.000000
   74        8.169556   0.000000
   75        8.482231   0.000000
   76        8.482240   0.000000
   77        8.493268   0.000000
   78        8.493293   0.000000
   79        9.226751   0.000000
   80        9.226778   0.000000
   81        9.283201   0.000000
   82        9.283203   0.000000
   83        9.797487   0.000000
   84        9.797544   0.000000
   85       10.021869   0.000000
   86       10.021881   0.000000
   87       10.232867   0.000000
   88       10.232868   0.000000
   89       10.552522   0.000000
   90       10.552557   0.000000
   91       11.206662   0.000000
   92       11.206706   0.000000
   93       11.367229   0.000000
   94       11.367234   0.000000
   95       11.894281   0.000000
   96       11.894281   0.000000
   97       12.087177   0.000000
   98       12.087190   0.000000
   99       12.179672   0.000000
  100       12.179725   0.000000
  101       12.469207   0.000000
  102       12.469208   0.000000
  103       12.516722   0.000000
  104       12.516753   0.000000
  105       12.862017   0.000000
  106       12.862018   0.000000
  107       12.936569   0.000000
  108       12.936582   0.000000
  109       13.731571   0.000000
  110       13.731587   0.000000
  111       13.807235   0.000000
  112       13.807252   0.000000
  113       13.833661   0.000000
  114       13.833677   0.000000
  115       14.192397   0.000000
  116       14.192446   0.000000
  117       14.342623   0.000000
  118       14.342653   0.000000
  119       14.376276   0.000000
  120       14.376329   0.000000
  121       14.421561   0.000000
  122       14.421601   0.000000
  123       14.466965   0.000000
  124       14.467040   0.000000
  125       14.653354   0.000000
  126       14.653405   0.000000
  127       14.782769   0.000000
  128       14.782802   0.000000
  129       14.882014   0.000000
  130       14.882034   0.000000
  131       15.091808   0.000000
  132       15.092547   0.000000
  133       15.201799   0.000000
  134       15.203359   0.000000
  135       15.299058   0.000000
  136       15.301783   0.000000
  137       15.348798   0.000000
  138       15.352733   0.000000
  139       15.432143   0.000000
  140       15.434266   0.000000
  141       15.508714   0.000000
  142       15.515278   0.000000
  143       15.807971   0.000000
  144       15.851863   0.000000
 
  0.0000000E+00  0.3800000E+00  0.0000000E+00  0.4901961E-02
    1      -16.641271   1.000000
    2      -16.641271   1.000000
    3      -16.001121   1.000000
    4      -16.001121   1.000000
    5      -11.070144   1.000000
    6      -11.070143   1.000000
    7      -10.254119   1.000000
    8      -10.254118   1.000000
    9       -6.204959   1.000000
   10       -6.204959   1.000000
   11       -5.495480   1.000000
   12       -5.495478   1.000000
   13       -5.404279   1.000000
   14       -5.404277   1.000000
   15       -4.968130   1.000000
   16       -4.968129   1.000000
   17       -4.222066   1.000000
   18       -4.222062   1.000000
   19       -3.373728   1.000000
   20       -3.373726   1.000000
   21       -1.215669   0.000000
   22       -1.215663   0.000000
   23       -0.525970   0.000000
   24       -0.525960   0.000000
   25       -0.132612   0.000000
   26       -0.132609   0.000000
   27        0.527841   0.000000
   28        0.527842   0.000000
   29        1.090966   0.000000
   30        1.090969   0.000000
   31        1.180069   0.000000
   32        1.180071   0.000000
   33        2.438045   0.000000
   34        2.438064   0.000000
   35        2.756631   0.000000
   36        2.756670   0.000000
   37        2.991233   0.000000
   38        2.991283   0.000000
   39        3.511827   0.000000
   40        3.511870   0.000000
   41        3.968941   0.000000
   42        3.968966   0.000000
   43        4.044517   0.000000
   44        4.044570   0.000000
   45        4.472581   0.000000
   46        4.472630   0.000000
   47        4.599564   0.000000
   48        4.599597   0.000000
   49        4.781026   0.000000
   50        4.781048   0.000000
   51        5.030921   0.000000
   52        5.030951   0.000000
   53        5.205128   0.000000
   54        5.205182   0.000000
   55        5.828523   0.000000
   56        5.828662   0.000000
   57        5.838854   0.000000
   58        5.838913   0.000000
   59        5.912399   0.000000
   60        5.912416   0.000000
   61        6.400034   0.000000
   62        6.400091   0.000000
   63        6.700412   0.000000
   64        6.700438   0.000000
   65        7.298019   0.000000
   66        7.298020   0.000000
   67        7.568760   0.000000
   68        7.568815   0.000000
   69        7.642831   0.000000
   70        7.642853   0.000000
   71        8.132101   0.000000
   72        8.132231   0.000000
   73        8.138309   0.000000
   74        8.138386   0.000000
   75        8.498989   0.000000
   76        8.499020   0.000000
   77        8.520519   0.000000
   78        8.520520   0.000000
   79        9.210448   0.000000
   80        9.210473   0.000000
   81        9.377172   0.000000
   82        9.377172   0.000000
   83        9.872075   0.000000
   84        9.872132   0.000000
   85       10.056639   0.000000
   86       10.056651   0.000000
   87       10.147810   0.000000
   88       10.147811   0.000000
   89       10.539934   0.000000
   90       10.539971   0.000000
   91       11.155601   0.000000
   92       11.155644   0.000000
   93       11.335206   0.000000
   94       11.335209   0.000000
   95       11.821180   0.000000
   96       11.821181   0.000000
   97       12.028163   0.000000
   98       12.028171   0.000000
   99       12.194676   0.000000
  100       12.194715   0.000000
  101       12.401613   0.000000
  102       12.401614   0.000000
  103       12.572513   0.000000
  104       12.572548   0.000000
  105       12.906415   0.000000
  106       12.906417   0.000000
  107       12.921038   0.000000
  108       12.921053   0.000000
  109       13.689882   0.000000
  110       13.689899   0.000000
  111       13.743776   0.000000
  112       13.743794   0.000000
  113       13.771158   0.000000
  114       13.771179   0.000000
  115       14.142562   0.000000
  116       14.142611   0.000000
  117       14.310930   0.000000
  118       14.310958   0.000000
  119       14.326817   0.000000
  120       14.326869   0.000000
  121       14.380245   0.000000
  122       14.380286   0.000000
  123       14.411562   0.000000
  124       14.411637   0.000000
  125       14.625112   0.000000
  126       14.625167   0.000000
  127       14.767629   0.000000
  128       14.767667   0.000000
  129       14.921894   0.000000
  130       14.922165   0.000000
  131       15.119566   0.000000
  132       15.121203   0.000000
  133       15.179225   0.000000
  134       15.181721   0.000000
  135       15.308545   0.000000
  136       15.309891   0.000000
  137       15.326480   0.000000
  138       15.335251   0.000000
  139       15.388010   0.000000
  140       15.392803   0.000000
  141       15.501036   0.000000
  142       15.523258   0.000000
  143       15.709074   0.000000
  144       15.891339   0.000000
 
  0.0000000E+00  0.3700000E+00  0.0000000E+00  0.4901961E-02
    1      -16.666934   1.000000
    2      -16.666934   1.000000
    3      -15.977396   1.000000
    4      -15.977396   1.000000
    5      -11.083127   1.000000
    6      -11.083126   1.000000
    7      -10.201864   1.000000
    8      -10.201863   1.000000
    9       -6.244030   1.000000
   10       -6.244029   1.000000
   11       -5.517899   1.000000
   12       -5.517898   1.000000
   13       -5.405445   1.000000
   14       -5.405443   1.000000
   15       -4.951594   1.000000
   16       -4.951593   1.000000
   17       -4.239218   1.000000
   18       -4.239214   1.000000
   19       -3.376648   1.000000
   20       -3.376645   1.000000
   21       -1.209686   0.000000
   22       -1.209679   0.000000
   23       -0.515314   0.000000
   24       -0.515303   0.000000
   25       -0.163538   0.000000
   26       -0.163535   0.000000
   27        0.526664   0.000000
   28        0.526664   0.000000
   29        1.139562   0.000000
   30        1.139565   0.000000
   31        1.227834   0.000000
   32        1.227835   0.000000
   33        2.398283   0.000000
   34        2.398303   0.000000
   35        2.706153   0.000000
   36        2.706192   0.000000
   37        2.939625   0.000000
   38        2.939675   0.000000
   39        3.479250   0.000000
   40        3.479294   0.000000
   41        3.988041   0.000000
   42        3.988082   0.000000
   43        4.016194   0.000000
   44        4.016237   0.000000
   45        4.519676   0.000000
   46        4.519720   0.000000
   47        4.624091   0.000000
   48        4.624114   0.000000
   49        4.804275   0.000000
   50        4.804300   0.000000
   51        5.021719   0.000000
   52        5.021745   0.000000
   53        5.259177   0.000000
   54        5.259233   0.000000
   55        5.811735   0.000000
   56        5.811765   0.000000
   57        5.870909   0.000000
   58        5.870966   0.000000
   59        5.908008   0.000000
   60        5.908024   0.000000
   61        6.397097   0.000000
   62        6.397160   0.000000
   63        6.758015   0.000000
   64        6.758040   0.000000
   65        7.249908   0.000000
   66        7.249908   0.000000
   67        7.643164   0.000000
   68        7.643221   0.000000
   69        7.700447   0.000000
   70        7.700469   0.000000
   71        8.109445   0.000000
   72        8.109505   0.000000
   73        8.130792   0.000000
   74        8.130828   0.000000
   75        8.521381   0.000000
   76        8.521410   0.000000
   77        8.548507   0.000000
   78        8.548508   0.000000
   79        9.191592   0.000000
   80        9.191617   0.000000
   81        9.466056   0.000000
   82        9.466057   0.000000
   83        9.946191   0.000000
   84        9.946247   0.000000
   85       10.067387   0.000000
   86       10.067391   0.000000
   87       10.105578   0.000000
   88       10.105593   0.000000
   89       10.527208   0.000000
   90       10.527246   0.000000
   91       11.105564   0.000000
   92       11.105607   0.000000
   93       11.296350   0.000000
   94       11.296351   0.000000
   95       11.731628   0.000000
   96       11.731628   0.000000
   97       11.976721   0.000000
   98       11.976730   0.000000
   99       12.196543   0.000000
  100       12.196573   0.000000
  101       12.336100   0.000000
  102       12.336101   0.000000
  103       12.632302   0.000000
  104       12.632341   0.000000
  105       12.915686   0.000000
  106       12.915704   0.000000
  107       12.968440   0.000000
  108       12.968441   0.000000
  109       13.646607   0.000000
  110       13.646617   0.000000
  111       13.654460   0.000000
  112       13.654485   0.000000
  113       13.732605   0.000000
  114       13.732626   0.000000
  115       14.093226   0.000000
  116       14.093277   0.000000
  117       14.274121   0.000000
  118       14.274146   0.000000
  119       14.278287   0.000000
  120       14.278332   0.000000
  121       14.339166   0.000000
  122       14.339211   0.000000
  123       14.357354   0.000000
  124       14.357430   0.000000
  125       14.566126   0.000000
  126       14.566184   0.000000
  127       14.747433   0.000000
  128       14.747449   0.000000
  129       14.978341   0.000000
  130       14.978442   0.000000
  131       15.055799   0.000000
  132       15.056047   0.000000
  133       15.226897   0.000000
  134       15.228018   0.000000
  135       15.235772   0.000000
  136       15.238851   0.000000
  137       15.306968   0.000000
  138       15.310249   0.000000
  139       15.376514   0.000000
  140       15.379232   0.000000
  141       15.510285   0.000000
  142       15.525701   0.000000
  143       15.653340   0.000000
  144       15.722896   0.000000
 
  0.0000000E+00  0.3600000E+00  0.0000000E+00  0.4901961E-02
    1      -16.692227   1.000000
    2      -16.692227   1.000000
    3      -15.954212   1.000000
    4      -15.954212   1.000000
    5      -11.094347   1.000000
    6      -11.094346   1.000000
    7      -10.148463   1.000000
    8      -10.148462   1.000000
    9       -6.282786   1.000000
   10       -6.282786   1.000000
   11       -5.540549   1.000000
   12       -5.540548   1.000000
   13       -5.412599   1.000000
   14       -5.412597   1.000000
   15       -4.935714   1.000000
   16       -4.935714   1.000000
   17       -4.249901   1.000000
   18       -4.249897   1.000000
   19       -3.385543   1.000000
   20       -3.385541   1.000000
   21       -1.198055   0.000000
   22       -1.198047   0.000000
   23       -0.513243   0.000000
   24       -0.513230   0.000000
   25       -0.187419   0.000000
   26       -0.187415   0.000000
   27        0.527529   0.000000
   28        0.527529   0.000000
   29        1.186856   0.000000
   30        1.186859   0.000000
   31        1.275927   0.000000
   32        1.275929   0.000000
   33        2.361194   0.000000
   34        2.361215   0.000000
   35        2.656401   0.000000
   36        2.656440   0.000000
   37        2.889635   0.000000
   38        2.889684   0.000000
   39        3.442271   0.000000
   40        3.442316   0.000000
   41        3.982166   0.000000
   42        3.982271   0.000000
   43        4.006322   0.000000
   44        4.006352   0.000000
   45        4.570604   0.000000
   46        4.570644   0.000000
   47        4.635509   0.000000
   48        4.635523   0.000000
   49        4.830776   0.000000
   50        4.830804   0.000000
   51        5.035759   0.000000
   52        5.035785   0.000000
   53        5.309089   0.000000
   54        5.309145   0.000000
   55        5.775531   0.000000
   56        5.775555   0.000000
   57        5.903174   0.000000
   58        5.903242   0.000000
   59        5.916081   0.000000
   60        5.916092   0.000000
   61        6.407927   0.000000
   62        6.407996   0.000000
   63        6.815483   0.000000
   64        6.815507   0.000000
   65        7.202514   0.000000
   66        7.202514   0.000000
   67        7.715195   0.000000
   68        7.715260   0.000000
   69        7.746235   0.000000
   70        7.746260   0.000000
   71        8.099216   0.000000
   72        8.099269   0.000000
   73        8.122123   0.000000
   74        8.122157   0.000000
   75        8.551958   0.000000
   76        8.551984   0.000000
   77        8.569555   0.000000
   78        8.569560   0.000000
   79        9.175516   0.000000
   80        9.175540   0.000000
   81        9.547569   0.000000
   82        9.547571   0.000000
   83        9.996220   0.000000
   84        9.996227   0.000000
   85       10.021958   0.000000
   86       10.022005   0.000000
   87       10.160237   0.000000
   88       10.160251   0.000000
   89       10.516308   0.000000
   90       10.516348   0.000000
   91       11.056738   0.000000
   92       11.056780   0.000000
   93       11.250657   0.000000
   94       11.250658   0.000000
   95       11.631106   0.000000
   96       11.631106   0.000000
   97       11.935531   0.000000
   98       11.935540   0.000000
   99       12.184306   0.000000
  100       12.184330   0.000000
  101       12.272988   0.000000
  102       12.272989   0.000000
  103       12.694430   0.000000
  104       12.694472   0.000000
  105       12.925682   0.000000
  106       12.925703   0.000000
  107       13.037552   0.000000
  108       13.037552   0.000000
  109       13.561996   0.000000
  110       13.562009   0.000000
  111       13.605302   0.000000
  112       13.605324   0.000000
  113       13.694580   0.000000
  114       13.694603   0.000000
  115       14.044451   0.000000
  116       14.044503   0.000000
  117       14.228658   0.000000
  118       14.228708   0.000000
  119       14.236258   0.000000
  120       14.236287   0.000000
  121       14.298415   0.000000
  122       14.298459   0.000000
  123       14.304524   0.000000
  124       14.304597   0.000000
  125       14.497916   0.000000
  126       14.497972   0.000000
  127       14.717302   0.000000
  128       14.717351   0.000000
  129       14.930489   0.000000
  130       14.930816   0.000000
  131       15.104848   0.000000
  132       15.105918   0.000000
  133       15.110051   0.000000
  134       15.111181   0.000000
  135       15.224869   0.000000
  136       15.226954   0.000000
  137       15.294493   0.000000
  138       15.302179   0.000000
  139       15.409220   0.000000
  140       15.415399   0.000000
  141       15.439619   0.000000
  142       15.486717   0.000000
  143       15.642815   0.000000
  144       15.683351   0.000000
 
  0.0000000E+00  0.3500000E+00  0.0000000E+00  0.4901961E-02
    1      -16.717120   1.000000
    2      -16.717120   1.000000
    3      -15.931599   1.000000
    4      -15.931599   1.000000
    5      -11.103818   1.000000
    6      -11.103817   1.000000
    7      -10.093961   1.000000
    8      -10.093960   1.000000
    9       -6.321214   1.000000
   10       -6.321214   1.000000
   11       -5.563213   1.000000
   12       -5.563211   1.000000
   13       -5.425985   1.000000
   14       -5.425984   1.000000
   15       -4.920490   1.000000
   16       -4.920490   1.000000
   17       -4.254006   1.000000
   18       -4.254002   1.000000
   19       -3.400268   1.000000
   20       -3.400266   1.000000
   21       -1.180914   0.000000
   22       -1.180905   0.000000
   23       -0.520636   0.000000
   24       -0.520622   0.000000
   25       -0.203449   0.000000
   26       -0.203443   0.000000
   27        0.530414   0.000000
   28        0.530414   0.000000
   29        1.232326   0.000000
   30        1.232329   0.000000
   31        1.324361   0.000000
   32        1.324362   0.000000
   33        2.327072   0.000000
   34        2.327093   0.000000
   35        2.607512   0.000000
   36        2.607552   0.000000
   37        2.841341   0.000000
   38        2.841390   0.000000
   39        3.402820   0.000000
   40        3.402865   0.000000
   41        3.946020   0.000000
   42        3.946105   0.000000
   43        4.020634   0.000000
   44        4.020641   0.000000
   45        4.621214   0.000000
   46        4.621267   0.000000
   47        4.642507   0.000000
   48        4.642528   0.000000
   49        4.847525   0.000000
   50        4.847564   0.000000
   51        5.078622   0.000000
   52        5.078658   0.000000
   53        5.354169   0.000000
   54        5.354225   0.000000
   55        5.735123   0.000000
   56        5.735145   0.000000
   57        5.923898   0.000000
   58        5.923991   0.000000
   59        5.934385   0.000000
   60        5.934419   0.000000
   61        6.434418   0.000000
   62        6.434492   0.000000
   63        6.871707   0.000000
   64        6.871731   0.000000
   65        7.155923   0.000000
   66        7.155923   0.000000
   67        7.767660   0.000000
   68        7.767718   0.000000
   69        7.785871   0.000000
   70        7.785910   0.000000
   71        8.108077   0.000000
   72        8.108145   0.000000
   73        8.116791   0.000000
   74        8.116821   0.000000
   75        8.574021   0.000000
   76        8.574025   0.000000
   77        8.594885   0.000000
   78        8.594910   0.000000
   79        9.167604   0.000000
   80        9.167628   0.000000
   81        9.619399   0.000000
   82        9.619401   0.000000
   83        9.939297   0.000000
   84        9.939297   0.000000
   85       10.089866   0.000000
   86       10.089917   0.000000
   87       10.222946   0.000000
   88       10.222960   0.000000
   89       10.509806   0.000000
   90       10.509849   0.000000
   91       11.009344   0.000000
   92       11.009385   0.000000
   93       11.199119   0.000000
   94       11.199119   0.000000
   95       11.523434   0.000000
   96       11.523434   0.000000
   97       11.905854   0.000000
   98       11.905862   0.000000
   99       12.158701   0.000000
  100       12.158720   0.000000
  101       12.212564   0.000000
  102       12.212566   0.000000
  103       12.757938   0.000000
  104       12.757984   0.000000
  105       12.947168   0.000000
  106       12.947192   0.000000
  107       13.111315   0.000000
  108       13.111315   0.000000
  109       13.471420   0.000000
  110       13.471432   0.000000
  111       13.562645   0.000000
  112       13.562667   0.000000
  113       13.658563   0.000000
  114       13.658586   0.000000
  115       13.996282   0.000000
  116       13.996335   0.000000
  117       14.181240   0.000000
  118       14.181291   0.000000
  119       14.194593   0.000000
  120       14.194622   0.000000
  121       14.252433   0.000000
  122       14.252505   0.000000
  123       14.258622   0.000000
  124       14.258664   0.000000
  125       14.428510   0.000000
  126       14.428565   0.000000
  127       14.667294   0.000000
  128       14.667304   0.000000
  129       14.846168   0.000000
  130       14.846219   0.000000
  131       14.988589   0.000000
  132       14.988749   0.000000
  133       15.182217   0.000000
  134       15.185018   0.000000
  135       15.199619   0.000000
  136       15.201851   0.000000
  137       15.269202   0.000000
  138       15.276622   0.000000
  139       15.278244   0.000000
  140       15.286541   0.000000
  141       15.525038   0.000000
  142       15.541954   0.000000
  143       15.555473   0.000000
  144       15.593924   0.000000
 
  0.0000000E+00  0.3400000E+00  0.0000000E+00  0.4901961E-02
    1      -16.741587   1.000000
    2      -16.741587   1.000000
    3      -15.909582   1.000000
    4      -15.909582   1.000000
    5      -11.111560   1.000000
    6      -11.111559   1.000000
    7      -10.038405   1.000000
    8      -10.038404   1.000000
    9       -6.359303   1.000000
   10       -6.359303   1.000000
   11       -5.585802   1.000000
   12       -5.585800   1.000000
   13       -5.445473   1.000000
   14       -5.445472   1.000000
   15       -4.905922   1.000000
   16       -4.905922   1.000000
   17       -4.251677   1.000000
   18       -4.251672   1.000000
   19       -3.420567   1.000000
   20       -3.420564   1.000000
   21       -1.158507   0.000000
   22       -1.158498   0.000000
   23       -0.537139   0.000000
   24       -0.537124   0.000000
   25       -0.212022   0.000000
   26       -0.212017   0.000000
   27        0.535277   0.000000
   28        0.535277   0.000000
   29        1.275232   0.000000
   30        1.275235   0.000000
   31        1.373315   0.000000
   32        1.373316   0.000000
   33        2.296228   0.000000
   34        2.296250   0.000000
   35        2.559589   0.000000
   36        2.559630   0.000000
   37        2.794838   0.000000
   38        2.794887   0.000000
   39        3.362137   0.000000
   40        3.362182   0.000000
   41        3.908638   0.000000
   42        3.908721   0.000000
   43        4.030723   0.000000
   44        4.030727   0.000000
   45        4.641260   0.000000
   46        4.641291   0.000000
   47        4.674247   0.000000
   48        4.674268   0.000000
   49        4.860227   0.000000
   50        4.860274   0.000000
   51        5.142863   0.000000
   52        5.142906   0.000000
   53        5.394303   0.000000
   54        5.394357   0.000000
   55        5.693305   0.000000
   56        5.693326   0.000000
   57        5.933957   0.000000
   58        5.934036   0.000000
   59        5.962091   0.000000
   60        5.962111   0.000000
   61        6.476218   0.000000
   62        6.476297   0.000000
   63        6.925693   0.000000
   64        6.925715   0.000000
   65        7.110132   0.000000
   66        7.110132   0.000000
   67        7.773199   0.000000
   68        7.773232   0.000000
   69        7.839422   0.000000
   70        7.839473   0.000000
   71        8.107258   0.000000
   72        8.107292   0.000000
   73        8.149468   0.000000
   74        8.149495   0.000000
   75        8.573661   0.000000
   76        8.573662   0.000000
   77        8.634419   0.000000
   78        8.634447   0.000000
   79        9.172708   0.000000
   80        9.172732   0.000000
   81        9.679381   0.000000
   82        9.679384   0.000000
   83        9.892919   0.000000
   84        9.892920   0.000000
   85       10.152727   0.000000
   86       10.152775   0.000000
   87       10.291036   0.000000
   88       10.291050   0.000000
   89       10.511443   0.000000
   90       10.511490   0.000000
   91       10.963682   0.000000
   92       10.963722   0.000000
   93       11.143467   0.000000
   94       11.143469   0.000000
   95       11.411255   0.000000
   96       11.411255   0.000000
   97       11.888311   0.000000
   98       11.888319   0.000000
   99       12.121500   0.000000
  100       12.121514   0.000000
  101       12.155102   0.000000
  102       12.155104   0.000000
  103       12.821952   0.000000
  104       12.822002   0.000000
  105       12.976958   0.000000
  106       12.976984   0.000000
  107       13.185138   0.000000
  108       13.185139   0.000000
  109       13.382995   0.000000
  110       13.383008   0.000000
  111       13.520243   0.000000
  112       13.520266   0.000000
  113       13.627140   0.000000
  114       13.627164   0.000000
  115       13.948717   0.000000
  116       13.948768   0.000000
  117       14.134831   0.000000
  118       14.134878   0.000000
  119       14.149978   0.000000
  120       14.150008   0.000000
  121       14.202228   0.000000
  122       14.202304   0.000000
  123       14.218361   0.000000
  124       14.218407   0.000000
  125       14.361555   0.000000
  126       14.361610   0.000000
  127       14.585358   0.000000
  128       14.585387   0.000000
  129       14.757252   0.000000
  130       14.757334   0.000000
  131       14.882936   0.000000
  132       14.883261   0.000000
  133       15.137293   0.000000
  134       15.138202   0.000000
  135       15.145587   0.000000
  136       15.151436   0.000000
  137       15.241661   0.000000
  138       15.246565   0.000000
  139       15.289996   0.000000
  140       15.313450   0.000000
  141       15.388246   0.000000
  142       15.392081   0.000000
  143       15.567659   0.000000
  144       15.594635   0.000000
 
  0.0000000E+00  0.3300000E+00  0.0000000E+00  0.4901961E-02
    1      -16.765603   1.000000
    2      -16.765603   1.000000
    3      -15.888186   1.000000
    4      -15.888186   1.000000
    5      -11.117600   1.000000
    6      -11.117599   1.000000
    7       -9.981842   1.000000
    8       -9.981841   1.000000
    9       -6.397047   1.000000
   10       -6.397047   1.000000
   11       -5.608290   1.000000
   12       -5.608289   1.000000
   13       -5.470660   1.000000
   14       -5.470659   1.000000
   15       -4.892012   1.000000
   16       -4.892012   1.000000
   17       -4.243277   1.000000
   18       -4.243272   1.000000
   19       -3.446106   1.000000
   20       -3.446102   1.000000
   21       -1.131176   0.000000
   22       -1.131166   0.000000
   23       -0.561190   0.000000
   24       -0.561174   0.000000
   25       -0.214708   0.000000
   26       -0.214703   0.000000
   27        0.542064   0.000000
   28        0.542064   0.000000
   29        1.314691   0.000000
   30        1.314695   0.000000
   31        1.423077   0.000000
   32        1.423078   0.000000
   33        2.268973   0.000000
   34        2.268995   0.000000
   35        2.512715   0.000000
   36        2.512755   0.000000
   37        2.750242   0.000000
   38        2.750291   0.000000
   39        3.321016   0.000000
   40        3.321061   0.000000
   41        3.871026   0.000000
   42        3.871108   0.000000
   43        4.036732   0.000000
   44        4.036736   0.000000
   45        4.637470   0.000000
   46        4.637486   0.000000
   47        4.720300   0.000000
   48        4.720317   0.000000
   49        4.879160   0.000000
   50        4.879210   0.000000
   51        5.218649   0.000000
   52        5.218697   0.000000
   53        5.429946   0.000000
   54        5.429997   0.000000
   55        5.651871   0.000000
   56        5.651890   0.000000
   57        5.935767   0.000000
   58        5.935834   0.000000
   59        5.999054   0.000000
   60        5.999064   0.000000
   61        6.531016   0.000000
   62        6.531099   0.000000
   63        6.976387   0.000000
   64        6.976409   0.000000
   65        7.065241   0.000000
   66        7.065241   0.000000
   67        7.760087   0.000000
   68        7.760119   0.000000
   69        7.879997   0.000000
   70        7.880055   0.000000
   71        8.107534   0.000000
   72        8.107561   0.000000
   73        8.205590   0.000000
   74        8.205620   0.000000
   75        8.559260   0.000000
   76        8.559260   0.000000
   77        8.678520   0.000000
   78        8.678549   0.000000
   79        9.194089   0.000000
   80        9.194113   0.000000
   81        9.725850   0.000000
   82        9.725855   0.000000
   83        9.860078   0.000000
   84        9.860079   0.000000
   85       10.203001   0.000000
   86       10.203044   0.000000
   87       10.363023   0.000000
   88       10.363037   0.000000
   89       10.526465   0.000000
   90       10.526516   0.000000
   91       10.920193   0.000000
   92       10.920231   0.000000
   93       11.085823   0.000000
   94       11.085827   0.000000
   95       11.296312   0.000000
   96       11.296313   0.000000
   97       11.883337   0.000000
   98       11.883343   0.000000
   99       12.075328   0.000000
  100       12.075339   0.000000
  101       12.100207   0.000000
  102       12.100210   0.000000
  103       12.885366   0.000000
  104       12.885419   0.000000
  105       13.010280   0.000000
  106       13.010306   0.000000
  107       13.252762   0.000000
  108       13.252764   0.000000
  109       13.299681   0.000000
  110       13.299694   0.000000
  111       13.478280   0.000000
  112       13.478305   0.000000
  113       13.605163   0.000000
  114       13.605186   0.000000
  115       13.901659   0.000000
  116       13.901710   0.000000
  117       14.089760   0.000000
  118       14.089812   0.000000
  119       14.101063   0.000000
  120       14.101090   0.000000
  121       14.153260   0.000000
  122       14.153335   0.000000
  123       14.177450   0.000000
  124       14.177490   0.000000
  125       14.299479   0.000000
  126       14.299536   0.000000
  127       14.472048   0.000000
  128       14.472068   0.000000
  129       14.665515   0.000000
  130       14.665668   0.000000
  131       14.776281   0.000000
  132       14.776358   0.000000
  133       15.046983   0.000000
  134       15.047693   0.000000
  135       15.089103   0.000000
  136       15.090365   0.000000
  137       15.210218   0.000000
  138       15.211970   0.000000
  139       15.221554   0.000000
  140       15.225453   0.000000
  141       15.394141   0.000000
  142       15.402165   0.000000
  143       15.530923   0.000000
  144       15.568972   0.000000
 
  0.0000000E+00  0.3200000E+00  0.0000000E+00  0.4901961E-02
    1      -16.789143   1.000000
    2      -16.789143   1.000000
    3      -15.867433   1.000000
    4      -15.867433   1.000000
    5      -11.121969   1.000000
    6      -11.121968   1.000000
    7       -9.924323   1.000000
    8       -9.924322   1.000000
    9       -6.434446   1.000000
   10       -6.434446   1.000000
   11       -5.630700   1.000000
   12       -5.630699   1.000000
   13       -5.500932   1.000000
   14       -5.500931   1.000000
   15       -4.878752   1.000000
   16       -4.878752   1.000000
   17       -4.229334   1.000000
   18       -4.229329   1.000000
   19       -3.476475   1.000000
   20       -3.476472   1.000000
   21       -1.099353   0.000000
   22       -1.099341   0.000000
   23       -0.590730   0.000000
   24       -0.590713   0.000000
   25       -0.213533   0.000000
   26       -0.213528   0.000000
   27        0.550725   0.000000
   28        0.550725   0.000000
   29        1.349813   0.000000
   30        1.349816   0.000000
   31        1.473922   0.000000
   32        1.473922   0.000000
   33        2.245579   0.000000
   34        2.245602   0.000000
   35        2.466947   0.000000
   36        2.466988   0.000000
   37        2.707700   0.000000
   38        2.707747   0.000000
   39        3.279968   0.000000
   40        3.280014   0.000000
   41        3.833763   0.000000
   42        3.833845   0.000000
   43        4.039458   0.000000
   44        4.039462   0.000000
   45        4.626566   0.000000
   46        4.626577   0.000000
   47        4.761857   0.000000
   48        4.761871   0.000000
   49        4.908634   0.000000
   50        4.908684   0.000000
   51        5.300206   0.000000
   52        5.300256   0.000000
   53        5.461322   0.000000
   54        5.461368   0.000000
   55        5.613076   0.000000
   56        5.613094   0.000000
   57        5.932981   0.000000
   58        5.933040   0.000000
   59        6.044353   0.000000
   60        6.044363   0.000000
   61        6.595799   0.000000
   62        6.595885   0.000000
   63        7.016317   0.000000
   64        7.016325   0.000000
   65        7.027778   0.000000
   66        7.027790   0.000000
   67        7.737035   0.000000
   68        7.737067   0.000000
   69        7.905924   0.000000
   70        7.905984   0.000000
   71        8.110547   0.000000
   72        8.110570   0.000000
   73        8.274259   0.000000
   74        8.274290   0.000000
   75        8.531440   0.000000
   76        8.531440   0.000000
   77        8.728302   0.000000
   78        8.728332   0.000000
   79        9.232544   0.000000
   80        9.232568   0.000000
   81        9.757985   0.000000
   82        9.757992   0.000000
   83        9.841440   0.000000
   84        9.841441   0.000000
   85       10.234153   0.000000
   86       10.234190   0.000000
   87       10.437521   0.000000
   88       10.437535   0.000000
   89       10.559781   0.000000
   90       10.559836   0.000000
   91       10.879622   0.000000
   92       10.879659   0.000000
   93       11.028341   0.000000
   94       11.028349   0.000000
   95       11.179856   0.000000
   96       11.179856   0.000000
   97       11.891270   0.000000
   98       11.891275   0.000000
   99       12.023633   0.000000
  100       12.023642   0.000000
  101       12.046487   0.000000
  102       12.046489   0.000000
  103       12.946438   0.000000
  104       12.946495   0.000000
  105       13.038436   0.000000
  106       13.038462   0.000000
  107       13.227633   0.000000
  108       13.227647   0.000000
  109       13.304758   0.000000
  110       13.304763   0.000000
  111       13.437282   0.000000
  112       13.437308   0.000000
  113       13.601636   0.000000
  114       13.601657   0.000000
  115       13.854826   0.000000
  116       13.854878   0.000000
  117       14.044865   0.000000
  118       14.044894   0.000000
  119       14.047909   0.000000
  120       14.047948   0.000000
  121       14.105626   0.000000
  122       14.105700   0.000000
  123       14.133211   0.000000
  124       14.133246   0.000000
  125       14.243971   0.000000
  126       14.244035   0.000000
  127       14.343151   0.000000
  128       14.343175   0.000000
  129       14.571183   0.000000
  130       14.571231   0.000000
  131       14.649484   0.000000
  132       14.649546   0.000000
  133       14.990513   0.000000
  134       14.991340   0.000000
  135       15.042388   0.000000
  136       15.043554   0.000000
  137       15.075386   0.000000
  138       15.076225   0.000000
  139       15.176170   0.000000
  140       15.178851   0.000000
  141       15.465775   0.000000
  142       15.473016   0.000000
  143       15.503942   0.000000
  144       15.548080   0.000000
 
  0.0000000E+00  0.3100000E+00  0.0000000E+00  0.4901961E-02
    1      -16.812184   1.000000
    2      -16.812184   1.000000
    3      -15.847343   1.000000
    4      -15.847343   1.000000
    5      -11.124704   1.000000
    6      -11.124703   1.000000
    7       -9.865900   1.000000
    8       -9.865899   1.000000
    9       -6.471501   1.000000
   10       -6.471501   1.000000
   11       -5.653122   1.000000
   12       -5.653121   1.000000
   13       -5.535509   1.000000
   14       -5.535508   1.000000
   15       -4.866141   1.000000
   16       -4.866141   1.000000
   17       -4.210479   1.000000
   18       -4.210474   1.000000
   19       -3.511233   1.000000
   20       -3.511229   1.000000
   21       -1.063541   0.000000
   22       -1.063527   0.000000
   23       -0.623847   0.000000
   24       -0.623828   0.000000
   25       -0.210309   0.000000
   26       -0.210304   0.000000
   27        0.561197   0.000000
   28        0.561197   0.000000
   29        1.379866   0.000000
   30        1.379869   0.000000
   31        1.526002   0.000000
   32        1.526002   0.000000
   33        2.226239   0.000000
   34        2.226262   0.000000
   35        2.422339   0.000000
   36        2.422380   0.000000
   37        2.667400   0.000000
   38        2.667447   0.000000
   39        3.239339   0.000000
   40        3.239385   0.000000
   41        3.797232   0.000000
   42        3.797314   0.000000
   43        4.039869   0.000000
   44        4.039873   0.000000
   45        4.610599   0.000000
   46        4.610611   0.000000
   47        4.797372   0.000000
   48        4.797382   0.000000
   49        4.947708   0.000000
   50        4.947756   0.000000
   51        5.384350   0.000000
   52        5.384402   0.000000
   53        5.484742   0.000000
   54        5.484777   0.000000
   55        5.583128   0.000000
   56        5.583145   0.000000
   57        5.929346   0.000000
   58        5.929400   0.000000
   59        6.096567   0.000000
   60        6.096582   0.000000
   61        6.667866   0.000000
   62        6.667953   0.000000
   63        6.976734   0.000000
   64        6.976735   0.000000
   65        7.065633   0.000000
   66        7.065651   0.000000
   67        7.709143   0.000000
   68        7.709177   0.000000
   69        7.920881   0.000000
   70        7.920942   0.000000
   71        8.112060   0.000000
   72        8.112082   0.000000
   73        8.350349   0.000000
   74        8.350381   0.000000
   75        8.490836   0.000000
   76        8.490836   0.000000
   77        8.786390   0.000000
   78        8.786421   0.000000
   79        9.286438   0.000000
   80        9.286461   0.000000
   81        9.776210   0.000000
   82        9.776220   0.000000
   83        9.836419   0.000000
   84        9.836420   0.000000
   85       10.243804   0.000000
   86       10.243835   0.000000
   87       10.512699   0.000000
   88       10.512713   0.000000
   89       10.611280   0.000000
   90       10.611338   0.000000
   91       10.843460   0.000000
   92       10.843495   0.000000
   93       10.973106   0.000000
   94       10.973117   0.000000
   95       11.062847   0.000000
   96       11.062847   0.000000
   97       11.911672   0.000000
   98       11.911678   0.000000
   99       11.968821   0.000000
  100       11.968833   0.000000
  101       11.993813   0.000000
  102       11.993814   0.000000
  103       13.002084   0.000000
  104       13.002151   0.000000
  105       13.040081   0.000000
  106       13.040105   0.000000
  107       13.187214   0.000000
  108       13.187233   0.000000
  109       13.329047   0.000000
  110       13.329057   0.000000
  111       13.398632   0.000000
  112       13.398659   0.000000
  113       13.626683   0.000000
  114       13.626699   0.000000
  115       13.807558   0.000000
  116       13.807610   0.000000
  117       13.984209   0.000000
  118       13.984235   0.000000
  119       14.006229   0.000000
  120       14.006279   0.000000
  121       14.059306   0.000000
  122       14.059381   0.000000
  123       14.076492   0.000000
  124       14.076526   0.000000
  125       14.195282   0.000000
  126       14.195373   0.000000
  127       14.219973   0.000000
  128       14.219990   0.000000
  129       14.474939   0.000000
  130       14.475007   0.000000
  131       14.507425   0.000000
  132       14.507462   0.000000
  133       14.937503   0.000000
  134       14.937916   0.000000
  135       14.962508   0.000000
  136       14.963100   0.000000
  137       14.996106   0.000000
  138       14.997043   0.000000
  139       15.140321   0.000000
  140       15.141893   0.000000
  141       15.426812   0.000000
  142       15.437466   0.000000
  143       15.526291   0.000000
  144       15.551661   0.000000
 
  0.0000000E+00  0.3000000E+00  0.0000000E+00  0.4901961E-02
    1      -16.834705   1.000000
    2      -16.834705   1.000000
    3      -15.827932   1.000000
    4      -15.827932   1.000000
    5      -11.125849   1.000000
    6      -11.125848   1.000000
    7       -9.806627   1.000000
    8       -9.806626   1.000000
    9       -6.508223   1.000000
   10       -6.508223   1.000000
   11       -5.675774   1.000000
   12       -5.675773   1.000000
   13       -5.573447   1.000000
   14       -5.573447   1.000000
   15       -4.854173   1.000000
   16       -4.854173   1.000000
   17       -4.187373   1.000000
   18       -4.187367   1.000000
   19       -3.549909   1.000000
   20       -3.549904   1.000000
   21       -1.024348   0.000000
   22       -1.024331   0.000000
   23       -0.658997   0.000000
   24       -0.658975   0.000000
   25       -0.206373   0.000000
   26       -0.206369   0.000000
   27        0.573410   0.000000
   28        0.573410   0.000000
   29        1.404351   0.000000
   30        1.404354   0.000000
   31        1.579317   0.000000
   32        1.579318   0.000000
   33        2.210985   0.000000
   34        2.211009   0.000000
   35        2.378935   0.000000
   36        2.378976   0.000000
   37        2.629595   0.000000
   38        2.629640   0.000000
   39        3.199364   0.000000
   40        3.199410   0.000000
   41        3.761699   0.000000
   42        3.761781   0.000000
   43        4.038819   0.000000
   44        4.038823   0.000000
   45        4.592012   0.000000
   46        4.592025   0.000000
   47        4.826080   0.000000
   48        4.826089   0.000000
   49        4.993390   0.000000
   50        4.993436   0.000000
   51        5.468723   0.000000
   52        5.468785   0.000000
   53        5.484494   0.000000
   54        5.484504   0.000000
   55        5.579878   0.000000
   56        5.579906   0.000000
   57        5.928577   0.000000
   58        5.928627   0.000000
   59        6.154067   0.000000
   60        6.154087   0.000000
   61        6.745078   0.000000
   62        6.745166   0.000000
   63        6.934198   0.000000
   64        6.934199   0.000000
   65        7.101640   0.000000
   66        7.101656   0.000000
   67        7.679344   0.000000
   68        7.679378   0.000000
   69        7.928751   0.000000
   70        7.928811   0.000000
   71        8.110148   0.000000
   72        8.110170   0.000000
   73        8.429763   0.000000
   74        8.429797   0.000000
   75        8.439926   0.000000
   76        8.439931   0.000000
   77        8.854112   0.000000
   78        8.854144   0.000000
   79        9.352676   0.000000
   80        9.352699   0.000000
   81        9.782271   0.000000
   82        9.782282   0.000000
   83        9.843191   0.000000
   84        9.843192   0.000000
   85       10.234822   0.000000
   86       10.234848   0.000000
   87       10.584693   0.000000
   88       10.584707   0.000000
   89       10.674317   0.000000
   90       10.674373   0.000000
   91       10.815444   0.000000
   92       10.815479   0.000000
   93       10.922331   0.000000
   94       10.922346   0.000000
   95       10.946632   0.000000
   96       10.946634   0.000000
   97       11.903718   0.000000
   98       11.903722   0.000000
   99       11.943058   0.000000
  100       11.943061   0.000000
  101       11.951975   0.000000
  102       11.951982   0.000000
  103       12.998919   0.000000
  104       12.998934   0.000000
  105       13.046808   0.000000
  106       13.046855   0.000000
  107       13.191893   0.000000
  108       13.191917   0.000000
  109       13.326238   0.000000
  110       13.326253   0.000000
  111       13.365736   0.000000
  112       13.365764   0.000000
  113       13.678157   0.000000
  114       13.678171   0.000000
  115       13.758284   0.000000
  116       13.758336   0.000000
  117       13.915854   0.000000
  118       13.915881   0.000000
  119       13.969833   0.000000
  120       13.969881   0.000000
  121       13.985951   0.000000
  122       13.985998   0.000000
  123       14.014671   0.000000
  124       14.014746   0.000000
  125       14.130622   0.000000
  126       14.130681   0.000000
  127       14.151602   0.000000
  128       14.151645   0.000000
  129       14.362758   0.000000
  130       14.362797   0.000000
  131       14.379285   0.000000
  132       14.379354   0.000000
  133       14.810419   0.000000
  134       14.810497   0.000000
  135       14.943952   0.000000
  136       14.944567   0.000000
  137       14.951003   0.000000
  138       14.951641   0.000000
  139       15.105043   0.000000
  140       15.107637   0.000000
  141       15.371047   0.000000
  142       15.378097   0.000000
  143       15.516940   0.000000
  144       15.580500   0.000000
 
  0.0000000E+00  0.2900000E+00  0.0000000E+00  0.4901961E-02
    1      -16.856684   1.000000
    2      -16.856683   1.000000
    3      -15.809219   1.000000
    4      -15.809219   1.000000
    5      -11.125454   1.000000
    6      -11.125454   1.000000
    7       -9.746560   1.000000
    8       -9.746559   1.000000
    9       -6.544622   1.000000
   10       -6.544622   1.000000
   11       -5.699157   1.000000
   12       -5.699156   1.000000
   13       -5.613546   1.000000
   14       -5.613545   1.000000
   15       -4.842844   1.000000
   16       -4.842844   1.000000
   17       -4.160678   1.000000
   18       -4.160671   1.000000
   19       -3.592014   1.000000
   20       -3.592008   1.000000
   21       -0.982578   0.000000
   22       -0.982556   0.000000
   23       -0.694866   0.000000
   24       -0.694840   0.000000
   25       -0.202628   0.000000
   26       -0.202625   0.000000
   27        0.587282   0.000000
   28        0.587283   0.000000
   29        1.423030   0.000000
   30        1.423034   0.000000
   31        1.633746   0.000000
   32        1.633746   0.000000
   33        2.199609   0.000000
   34        2.199633   0.000000
   35        2.336772   0.000000
   36        2.336813   0.000000
   37        2.594614   0.000000
   38        2.594658   0.000000
   39        3.160206   0.000000
   40        3.160252   0.000000
   41        3.727358   0.000000
   42        3.727440   0.000000
   43        4.036912   0.000000
   44        4.036916   0.000000
   45        4.572872   0.000000
   46        4.572886   0.000000
   47        4.847815   0.000000
   48        4.847822   0.000000
   49        5.042454   0.000000
   50        5.042499   0.000000
   51        5.458400   0.000000
   52        5.458420   0.000000
   53        5.551085   0.000000
   54        5.551134   0.000000
   55        5.606710   0.000000
   56        5.606745   0.000000
   57        5.934761   0.000000
   58        5.934807   0.000000
   59        6.215237   0.000000
   60        6.215263   0.000000
   61        6.825668   0.000000
   62        6.825757   0.000000
   63        6.892424   0.000000
   64        6.892425   0.000000
   65        7.131950   0.000000
   66        7.131964   0.000000
   67        7.649421   0.000000
   68        7.649456   0.000000
   69        7.930059   0.000000
   70        7.930115   0.000000
   71        8.108161   0.000000
   72        8.108185   0.000000
   73        8.376594   0.000000
   74        8.376594   0.000000
   75        8.514727   0.000000
   76        8.514760   0.000000
   77        8.930828   0.000000
   78        8.930862   0.000000
   79        9.427687   0.000000
   80        9.427709   0.000000
   81        9.777784   0.000000
   82        9.777798   0.000000
   83        9.860097   0.000000
   84        9.860098   0.000000
   85       10.211458   0.000000
   86       10.211478   0.000000
   87       10.642342   0.000000
   88       10.642359   0.000000
   89       10.735142   0.000000
   90       10.735186   0.000000
   91       10.806067   0.000000
   92       10.806110   0.000000
   93       10.829950   0.000000
   94       10.829956   0.000000
   95       10.887011   0.000000
   96       10.887039   0.000000
   97       11.840898   0.000000
   98       11.840902   0.000000
   99       11.896708   0.000000
  100       11.896709   0.000000
  101       11.997339   0.000000
  102       11.997342   0.000000
  103       12.940747   0.000000
  104       12.940757   0.000000
  105       13.069798   0.000000
  106       13.069848   0.000000
  107       13.213599   0.000000
  108       13.213624   0.000000
  109       13.306991   0.000000
  110       13.307009   0.000000
  111       13.345441   0.000000
  112       13.345471   0.000000
  113       13.702951   0.000000
  114       13.703002   0.000000
  115       13.739742   0.000000
  116       13.739759   0.000000
  117       13.841805   0.000000
  118       13.841834   0.000000
  119       13.869142   0.000000
  120       13.869207   0.000000
  121       13.943377   0.000000
  122       13.943418   0.000000
  123       13.971148   0.000000
  124       13.971224   0.000000
  125       14.072604   0.000000
  126       14.072638   0.000000
  127       14.107183   0.000000
  128       14.107244   0.000000
  129       14.227485   0.000000
  130       14.227516   0.000000
  131       14.290199   0.000000
  132       14.290270   0.000000
  133       14.694248   0.000000
  134       14.694544   0.000000
  135       14.906737   0.000000
  136       14.907811   0.000000
  137       14.922615   0.000000
  138       14.924127   0.000000
  139       15.070289   0.000000
  140       15.075046   0.000000
  141       15.321663   0.000000
  142       15.354518   0.000000
  143       15.445996   0.000000
  144       15.480411   0.000000
 
  0.0000000E+00  0.2800000E+00  0.0000000E+00  0.4901961E-02
    1      -16.878096   1.000000
    2      -16.878096   1.000000
    3      -15.791211   1.000000
    4      -15.791211   1.000000
    5      -11.123574   1.000000
    6      -11.123574   1.000000
    7       -9.685757   1.000000
    8       -9.685756   1.000000
    9       -6.580711   1.000000
   10       -6.580711   1.000000
   11       -5.724413   1.000000
   12       -5.724411   1.000000
   13       -5.653990   1.000000
   14       -5.653989   1.000000
   15       -4.832146   1.000000
   16       -4.832146   1.000000
   17       -4.131009   1.000000
   18       -4.131001   1.000000
   19       -3.637063   1.000000
   20       -3.637056   1.000000
   21       -0.939588   0.000000
   22       -0.939558   0.000000
   23       -0.729884   0.000000
   24       -0.729850   0.000000
   25       -0.199633   0.000000
   26       -0.199630   0.000000
   27        0.602735   0.000000
   28        0.602735   0.000000
   29        1.435927   0.000000
   30        1.435931   0.000000
   31        1.689124   0.000000
   32        1.689124   0.000000
   33        2.191588   0.000000
   34        2.191613   0.000000
   35        2.295886   0.000000
   36        2.295927   0.000000
   37        2.562892   0.000000
   38        2.562934   0.000000
   39        3.121982   0.000000
   40        3.122028   0.000000
   41        3.694360   0.000000
   42        3.694442   0.000000
   43        4.034476   0.000000
   44        4.034482   0.000000
   45        4.554742   0.000000
   46        4.554756   0.000000
   47        4.862972   0.000000
   48        4.862979   0.000000
   49        5.091871   0.000000
   50        5.091916   0.000000
   51        5.424399   0.000000
   52        5.424417   0.000000
   53        5.628156   0.000000
   54        5.628198   0.000000
   55        5.646366   0.000000
   56        5.646406   0.000000
   57        5.952780   0.000000
   58        5.952823   0.000000
   59        6.278553   0.000000
   60        6.278584   0.000000
   61        6.850723   0.000000
   62        6.850724   0.000000
   63        6.909023   0.000000
   64        6.909112   0.000000
   65        7.156944   0.000000
   66        7.156956   0.000000
   67        7.620710   0.000000
   68        7.620746   0.000000
   69        7.921889   0.000000
   70        7.921940   0.000000
   71        8.113280   0.000000
   72        8.113308   0.000000
   73        8.306981   0.000000
   74        8.306981   0.000000
   75        8.599952   0.000000
   76        8.599985   0.000000
   77        9.014715   0.000000
   78        9.014751   0.000000
   79        9.507931   0.000000
   80        9.507952   0.000000
   81        9.764090   0.000000
   82        9.764105   0.000000
   83        9.885769   0.000000
   84        9.885770   0.000000
   85       10.177244   0.000000
   86       10.177260   0.000000
   87       10.665262   0.000000
   88       10.665283   0.000000
   89       10.711282   0.000000
   90       10.711285   0.000000
   91       10.760558   0.000000
   92       10.760584   0.000000
   93       10.839134   0.000000
   94       10.839165   0.000000
   95       10.895243   0.000000
   96       10.895291   0.000000
   97       11.773557   0.000000
   98       11.773562   0.000000
   99       11.853124   0.000000
  100       11.853124   0.000000
  101       12.055595   0.000000
  102       12.055596   0.000000
  103       12.882505   0.000000
  104       12.882515   0.000000
  105       13.060410   0.000000
  106       13.060454   0.000000
  107       13.230874   0.000000
  108       13.230899   0.000000
  109       13.279963   0.000000
  110       13.279983   0.000000
  111       13.343402   0.000000
  112       13.343432   0.000000
  113       13.632711   0.000000
  114       13.632762   0.000000
  115       13.758055   0.000000
  116       13.758075   0.000000
  117       13.764407   0.000000
  118       13.764488   0.000000
  119       13.784580   0.000000
  120       13.784607   0.000000
  121       13.928922   0.000000
  122       13.928996   0.000000
  123       13.944834   0.000000
  124       13.944863   0.000000
  125       14.012388   0.000000
  126       14.012415   0.000000
  127       14.052519   0.000000
  128       14.052594   0.000000
  129       14.121741   0.000000
  130       14.121766   0.000000
  131       14.218677   0.000000
  132       14.218744   0.000000
  133       14.589490   0.000000
  134       14.589773   0.000000
  135       14.863658   0.000000
  136       14.864349   0.000000
  137       14.884411   0.000000
  138       14.885837   0.000000
  139       15.036605   0.000000
  140       15.038206   0.000000
  141       15.271693   0.000000
  142       15.279756   0.000000
  143       15.353333   0.000000
  144       15.364238   0.000000
 
  0.0000000E+00  0.2700000E+00  0.0000000E+00  0.4901961E-02
    1      -16.898925   1.000000
    2      -16.898925   1.000000
    3      -15.773920   1.000000
    4      -15.773920   1.000000
    5      -11.120273   1.000000
    6      -11.120273   1.000000
    7       -9.624282   1.000000
    8       -9.624280   1.000000
    9       -6.616511   1.000000
   10       -6.616511   1.000000
   11       -5.753894   1.000000
   12       -5.753892   1.000000
   13       -5.691824   1.000000
   14       -5.691823   1.000000
   15       -4.822071   1.000000
   16       -4.822071   1.000000
   17       -4.098953   1.000000
   18       -4.098943   1.000000
   19       -3.684576   1.000000
   20       -3.684568   1.000000
   21       -0.898871   0.000000
   22       -0.898825   0.000000
   23       -0.760557   0.000000
   24       -0.760507   0.000000
   25       -0.197724   0.000000
   26       -0.197721   0.000000
   27        0.619672   0.000000
   28        0.619672   0.000000
   29        1.443303   0.000000
   30        1.443308   0.000000
   31        1.745256   0.000000
   32        1.745256   0.000000
   33        2.186038   0.000000
   34        2.186064   0.000000
   35        2.256320   0.000000
   36        2.256362   0.000000
   37        2.534980   0.000000
   38        2.535020   0.000000
   39        3.084776   0.000000
   40        3.084823   0.000000
   41        3.662823   0.000000
   42        3.662905   0.000000
   43        4.031582   0.000000
   44        4.031588   0.000000
   45        4.538814   0.000000
   46        4.538829   0.000000
   47        4.872364   0.000000
   48        4.872372   0.000000
   49        5.138781   0.000000
   50        5.138827   0.000000
   51        5.389180   0.000000
   52        5.389198   0.000000
   53        5.691125   0.000000
   54        5.691163   0.000000
   55        5.697349   0.000000
   56        5.697450   0.000000
   57        5.987802   0.000000
   58        5.987844   0.000000
   59        6.342607   0.000000
   60        6.342644   0.000000
   61        6.810517   0.000000
   62        6.810517   0.000000
   63        6.992187   0.000000
   64        6.992278   0.000000
   65        7.177846   0.000000
   66        7.177856   0.000000
   67        7.594566   0.000000
   68        7.594602   0.000000
   69        7.901940   0.000000
   70        7.901986   0.000000
   71        8.131101   0.000000
   72        8.131133   0.000000
   73        8.231611   0.000000
   74        8.231612   0.000000
   75        8.686068   0.000000
   76        8.686102   0.000000
   77        9.103690   0.000000
   78        9.103728   0.000000
   79        9.589835   0.000000
   80        9.589854   0.000000
   81        9.742836   0.000000
   82        9.742855   0.000000
   83        9.918451   0.000000
   84        9.918452   0.000000
   85       10.135082   0.000000
   86       10.135094   0.000000
   87       10.597815   0.000000
   88       10.597816   0.000000
   89       10.659872   0.000000
   90       10.659894   0.000000
   91       10.733333   0.000000
   92       10.733357   0.000000
   93       10.904953   0.000000
   94       10.904974   0.000000
   95       10.958259   0.000000
   96       10.958318   0.000000
   97       11.704424   0.000000
   98       11.704429   0.000000
   99       11.812611   0.000000
  100       11.812612   0.000000
  101       12.121961   0.000000
  102       12.121962   0.000000
  103       12.829393   0.000000
  104       12.829403   0.000000
  105       13.018576   0.000000
  106       13.018614   0.000000
  107       13.231797   0.000000
  108       13.231820   0.000000
  109       13.250270   0.000000
  110       13.250289   0.000000
  111       13.348414   0.000000
  112       13.348443   0.000000
  113       13.543540   0.000000
  114       13.543592   0.000000
  115       13.670155   0.000000
  116       13.670190   0.000000
  117       13.686997   0.000000
  118       13.687043   0.000000
  119       13.786986   0.000000
  120       13.787030   0.000000
  121       13.888263   0.000000
  122       13.888341   0.000000
  123       13.932751   0.000000
  124       13.932783   0.000000
  125       13.980793   0.000000
  126       13.980866   0.000000
  127       13.995300   0.000000
  128       13.995316   0.000000
  129       14.064748   0.000000
  130       14.064775   0.000000
  131       14.171881   0.000000
  132       14.171941   0.000000
  133       14.497070   0.000000
  134       14.497143   0.000000
  135       14.819555   0.000000
  136       14.820125   0.000000
  137       14.822385   0.000000
  138       14.823383   0.000000
  139       15.004625   0.000000
  140       15.006621   0.000000
  141       15.205698   0.000000
  142       15.222991   0.000000
  143       15.258232   0.000000
  144       15.268098   0.000000
 
  0.0000000E+00  0.2600000E+00  0.0000000E+00  0.4901961E-02
    1      -16.919148   1.000000
    2      -16.919148   1.000000
    3      -15.757351   1.000000
    4      -15.757351   1.000000
    5      -11.115620   1.000000
    6      -11.115619   1.000000
    7       -9.562195   1.000000
    8       -9.562194   1.000000
    9       -6.652045   1.000000
   10       -6.652045   1.000000
   11       -5.790306   1.000000
   12       -5.790304   1.000000
   13       -5.723792   1.000000
   14       -5.723791   1.000000
   15       -4.812606   1.000000
   16       -4.812606   1.000000
   17       -4.065059   1.000000
   18       -4.065047   1.000000
   19       -3.734043   1.000000
   20       -3.734033   1.000000
   21       -0.873017   0.000000
   22       -0.872953   0.000000
   23       -0.774385   0.000000
   24       -0.774318   0.000000
   25       -0.197076   0.000000
   26       -0.197073   0.000000
   27        0.637996   0.000000
   28        0.637996   0.000000
   29        1.445633   0.000000
   30        1.445639   0.000000
   31        1.801944   0.000000
   32        1.801944   0.000000
   33        2.181696   0.000000
   34        2.181722   0.000000
   35        2.218187   0.000000
   36        2.218229   0.000000
   37        2.511535   0.000000
   38        2.511572   0.000000
   39        3.048653   0.000000
   40        3.048699   0.000000
   41        3.632845   0.000000
   42        3.632927   0.000000
   43        4.028092   0.000000
   44        4.028100   0.000000
   45        4.526048   0.000000
   46        4.526063   0.000000
   47        4.877033   0.000000
   48        4.877041   0.000000
   49        5.180540   0.000000
   50        5.180589   0.000000
   51        5.354591   0.000000
   52        5.354607   0.000000
   53        5.739187   0.000000
   54        5.739213   0.000000
   55        5.756837   0.000000
   56        5.756912   0.000000
   57        6.042657   0.000000
   58        6.042701   0.000000
   59        6.406115   0.000000
   60        6.406155   0.000000
   61        6.770940   0.000000
   62        6.770941   0.000000
   63        7.073961   0.000000
   64        7.074054   0.000000
   65        7.196671   0.000000
   66        7.196679   0.000000
   67        7.572882   0.000000
   68        7.572919   0.000000
   69        7.871920   0.000000
   70        7.871964   0.000000
   71        8.145903   0.000000
   72        8.145910   0.000000
   73        8.168568   0.000000
   74        8.168596   0.000000
   75        8.772195   0.000000
   76        8.772229   0.000000
   77        9.195964   0.000000
   78        9.196004   0.000000
   79        9.669498   0.000000
   80        9.669505   0.000000
   81        9.715956   0.000000
   82        9.715982   0.000000
   83        9.956479   0.000000
   84        9.956481   0.000000
   85       10.087586   0.000000
   86       10.087594   0.000000
   87       10.485367   0.000000
   88       10.485368   0.000000
   89       10.647461   0.000000
   90       10.647478   0.000000
   91       10.692559   0.000000
   92       10.692588   0.000000
   93       10.983801   0.000000
   94       10.983817   0.000000
   95       11.038358   0.000000
   96       11.038419   0.000000
   97       11.635677   0.000000
   98       11.635683   0.000000
   99       11.775167   0.000000
  100       11.775167   0.000000
  101       12.191561   0.000000
  102       12.191562   0.000000
  103       12.783167   0.000000
  104       12.783177   0.000000
  105       12.953581   0.000000
  106       12.953617   0.000000
  107       13.207486   0.000000
  108       13.207504   0.000000
  109       13.219251   0.000000
  110       13.219264   0.000000
  111       13.320600   0.000000
  112       13.320634   0.000000
  113       13.470237   0.000000
  114       13.470286   0.000000
  115       13.595898   0.000000
  116       13.595931   0.000000
  117       13.615548   0.000000
  118       13.615596   0.000000
  119       13.764567   0.000000
  120       13.764617   0.000000
  121       13.848749   0.000000
  122       13.848823   0.000000
  123       13.861826   0.000000
  124       13.861861   0.000000
  125       13.901664   0.000000
  126       13.901728   0.000000
  127       14.036548   0.000000
  128       14.036586   0.000000
  129       14.073648   0.000000
  130       14.073652   0.000000
  131       14.141682   0.000000
  132       14.141735   0.000000
  133       14.418690   0.000000
  134       14.418780   0.000000
  135       14.727386   0.000000
  136       14.728022   0.000000
  137       14.781029   0.000000
  138       14.781223   0.000000
  139       14.972177   0.000000
  140       14.975435   0.000000
  141       15.155185   0.000000
  142       15.159796   0.000000
  143       15.165348   0.000000
  144       15.191600   0.000000
 
  0.0000000E+00  0.2500000E+00  0.0000000E+00  0.4901961E-02
    1      -16.938749   1.000000
    2      -16.938749   1.000000
    3      -15.741507   1.000000
    4      -15.741507   1.000000
    5      -11.109690   1.000000
    6      -11.109690   1.000000
    7       -9.499569   1.000000
    8       -9.499568   1.000000
    9       -6.687339   1.000000
   10       -6.687339   1.000000
   11       -5.833375   1.000000
   12       -5.833374   1.000000
   13       -5.749682   1.000000
   14       -5.749681   1.000000
   15       -4.803744   1.000000
   16       -4.803744   1.000000
   17       -4.029923   1.000000
   18       -4.029908   1.000000
   19       -3.784891   1.000000
   20       -3.784877   1.000000
   21       -0.881525   0.000000
   22       -0.881477   0.000000
   23       -0.752009   0.000000
   24       -0.751959   0.000000
   25       -0.197751   0.000000
   26       -0.197748   0.000000
   27        0.657593   0.000000
   28        0.657593   0.000000
   29        1.443538   0.000000
   30        1.443545   0.000000
   31        1.858978   0.000000
   32        1.858978   0.000000
   33        2.175375   0.000000
   34        2.175388   0.000000
   35        2.183347   0.000000
   36        2.183389   0.000000
   37        2.493243   0.000000
   38        2.493276   0.000000
   39        3.013659   0.000000
   40        3.013705   0.000000
   41        3.604508   0.000000
   42        3.604590   0.000000
   43        4.023748   0.000000
   44        4.023757   0.000000
   45        4.517225   0.000000
   46        4.517240   0.000000
   47        4.878044   0.000000
   48        4.878053   0.000000
   49        5.214977   0.000000
   50        5.215030   0.000000
   51        5.321315   0.000000
   52        5.321331   0.000000
   53        5.787619   0.000000
   54        5.787643   0.000000
   55        5.811020   0.000000
   56        5.811086   0.000000
   57        6.115326   0.000000
   58        6.115372   0.000000
   59        6.467938   0.000000
   60        6.467983   0.000000
   61        6.732113   0.000000
   62        6.732114   0.000000
   63        7.150671   0.000000
   64        7.150770   0.000000
   65        7.216091   0.000000
   66        7.216104   0.000000
   67        7.558900   0.000000
   68        7.558940   0.000000
   69        7.835498   0.000000
   70        7.835540   0.000000
   71        8.066890   0.000000
   72        8.066890   0.000000
   73        8.207615   0.000000
   74        8.207651   0.000000
   75        8.857313   0.000000
   76        8.857347   0.000000
   77        9.290067   0.000000
   78        9.290109   0.000000
   79        9.682764   0.000000
   80        9.682787   0.000000
   81        9.745356   0.000000
   82        9.745396   0.000000
   83        9.998224   0.000000
   84        9.998227   0.000000
   85       10.037263   0.000000
   86       10.037269   0.000000
   87       10.374697   0.000000
   88       10.374698   0.000000
   89       10.637598   0.000000
   90       10.637619   0.000000
   91       10.649527   0.000000
   92       10.649591   0.000000
   93       11.065114   0.000000
   94       11.065127   0.000000
   95       11.122725   0.000000
   96       11.122785   0.000000
   97       11.570857   0.000000
   98       11.570865   0.000000
   99       11.740825   0.000000
  100       11.740826   0.000000
  101       12.256554   0.000000
  102       12.256556   0.000000
  103       12.744303   0.000000
  104       12.744313   0.000000
  105       12.875787   0.000000
  106       12.875824   0.000000
  107       13.154902   0.000000
  108       13.154937   0.000000
  109       13.184473   0.000000
  110       13.184495   0.000000
  111       13.229071   0.000000
  112       13.229105   0.000000
  113       13.439296   0.000000
  114       13.439339   0.000000
  115       13.532357   0.000000
  116       13.532384   0.000000
  117       13.553699   0.000000
  118       13.553758   0.000000
  119       13.734897   0.000000
  120       13.734948   0.000000
  121       13.810432   0.000000
  122       13.810501   0.000000
  123       13.816980   0.000000
  124       13.817010   0.000000
  125       13.824243   0.000000
  126       13.824300   0.000000
  127       14.022679   0.000000
  128       14.022721   0.000000
  129       14.114501   0.000000
  130       14.114560   0.000000
  131       14.161934   0.000000
  132       14.161995   0.000000
  133       14.357836   0.000000
  134       14.357940   0.000000
  135       14.616680   0.000000
  136       14.617241   0.000000
  137       14.741602   0.000000
  138       14.742019   0.000000
  139       14.943498   0.000000
  140       14.949388   0.000000
  141       15.061533   0.000000
  142       15.089465   0.000000
  143       15.126080   0.000000
  144       15.170053   0.000000
 
  0.0000000E+00  0.2400000E+00  0.0000000E+00  0.4901961E-02
    1      -16.957711   1.000000
    2      -16.957711   1.000000
    3      -15.726392   1.000000
    4      -15.726392   1.000000
    5      -11.102568   1.000000
    6      -11.102568   1.000000
    7       -9.436474   1.000000
    8       -9.436473   1.000000
    9       -6.722419   1.000000
   10       -6.722419   1.000000
   11       -5.880495   1.000000
   12       -5.880494   1.000000
   13       -5.771674   1.000000
   14       -5.771673   1.000000
   15       -4.795471   1.000000
   16       -4.795471   1.000000
   17       -3.994466   1.000000
   18       -3.994443   1.000000
   19       -3.836184   1.000000
   20       -3.836163   1.000000
   21       -0.910103   0.000000
   22       -0.910074   0.000000
   23       -0.707961   0.000000
   24       -0.707930   0.000000
   25       -0.199748   0.000000
   26       -0.199746   0.000000
   27        0.678347   0.000000
   28        0.678347   0.000000
   29        1.437718   0.000000
   30        1.437725   0.000000
   31        1.916114   0.000000
   32        1.916115   0.000000
   33        2.144688   0.000000
   34        2.144727   0.000000
   35        2.172926   0.000000
   36        2.172963   0.000000
   37        2.480652   0.000000
   38        2.480681   0.000000
   39        2.979832   0.000000
   40        2.979879   0.000000
   41        3.577882   0.000000
   42        3.577964   0.000000
   43        4.018233   0.000000
   44        4.018244   0.000000
   45        4.512944   0.000000
   46        4.512958   0.000000
   47        4.876350   0.000000
   48        4.876360   0.000000
   49        5.240762   0.000000
   50        5.240827   0.000000
   51        5.289723   0.000000
   52        5.289741   0.000000
   53        5.834666   0.000000
   54        5.834688   0.000000
   55        5.865377   0.000000
   56        5.865430   0.000000
   57        6.200870   0.000000
   58        6.200919   0.000000
   59        6.527204   0.000000
   60        6.527253   0.000000
   61        6.694091   0.000000
   62        6.694092   0.000000
   63        7.215484   0.000000
   64        7.215611   0.000000
   65        7.239748   0.000000
   66        7.239794   0.000000
   67        7.558433   0.000000
   68        7.558478   0.000000
   69        7.795804   0.000000
   70        7.795846   0.000000
   71        7.982191   0.000000
   72        7.982191   0.000000
   73        8.259170   0.000000
   74        8.259206   0.000000
   75        8.940014   0.000000
   76        8.940048   0.000000
   77        9.384723   0.000000
   78        9.384768   0.000000
   79        9.648017   0.000000
   80        9.648038   0.000000
   81        9.810620   0.000000
   82        9.810653   0.000000
   83        9.985618   0.000000
   84        9.985622   0.000000
   85       10.043169   0.000000
   86       10.043173   0.000000
   87       10.266156   0.000000
   88       10.266159   0.000000
   89       10.605128   0.000000
   90       10.605148   0.000000
   91       10.636005   0.000000
   92       10.636052   0.000000
   93       11.140591   0.000000
   94       11.140601   0.000000
   95       11.207740   0.000000
   96       11.207798   0.000000
   97       11.517325   0.000000
   98       11.517337   0.000000
   99       11.709673   0.000000
  100       11.709674   0.000000
  101       12.303304   0.000000
  102       12.303308   0.000000
  103       12.712238   0.000000
  104       12.712249   0.000000
  105       12.797132   0.000000
  106       12.797171   0.000000
  107       13.071385   0.000000
  108       13.071431   0.000000
  109       13.112833   0.000000
  110       13.112861   0.000000
  111       13.151993   0.000000
  112       13.152016   0.000000
  113       13.402790   0.000000
  114       13.402824   0.000000
  115       13.492404   0.000000
  116       13.492446   0.000000
  117       13.497625   0.000000
  118       13.497741   0.000000
  119       13.703449   0.000000
  120       13.703501   0.000000
  121       13.755705   0.000000
  122       13.755747   0.000000
  123       13.774542   0.000000
  124       13.774616   0.000000
  125       13.794526   0.000000
  126       13.794561   0.000000
  127       14.018442   0.000000
  128       14.018497   0.000000
  129       14.080085   0.000000
  130       14.080123   0.000000
  131       14.253079   0.000000
  132       14.253124   0.000000
  133       14.316998   0.000000
  134       14.317032   0.000000
  135       14.500209   0.000000
  136       14.500277   0.000000
  137       14.703027   0.000000
  138       14.703277   0.000000
  139       14.916710   0.000000
  140       14.917851   0.000000
  141       14.969261   0.000000
  142       14.976599   0.000000
  143       15.098479   0.000000
  144       15.103713   0.000000
 
  0.0000000E+00  0.2300000E+00  0.0000000E+00  0.4901961E-02
    1      -16.976019   1.000000
    2      -16.976019   1.000000
    3      -15.712008   1.000000
    4      -15.712008   1.000000
    5      -11.094346   1.000000
    6      -11.094346   1.000000
    7       -9.372989   1.000000
    8       -9.372987   1.000000
    9       -6.757324   1.000000
   10       -6.757324   1.000000
   11       -5.929635   1.000000
   12       -5.929634   1.000000
   13       -5.791416   1.000000
   14       -5.791415   1.000000
   15       -4.787771   1.000000
   16       -4.787771   1.000000
   17       -3.962112   1.000000
   18       -3.962067   1.000000
   19       -3.884479   1.000000
   20       -3.884435   1.000000
   21       -0.943980   0.000000
   22       -0.943960   0.000000
   23       -0.657252   0.000000
   24       -0.657230   0.000000
   25       -0.203007   0.000000
   26       -0.203005   0.000000
   27        0.700133   0.000000
   28        0.700133   0.000000
   29        1.428882   0.000000
   30        1.428889   0.000000
   31        1.973007   0.000000
   32        1.973009   0.000000
   33        2.110692   0.000000
   34        2.110732   0.000000
   35        2.165105   0.000000
   36        2.165143   0.000000
   37        2.473958   0.000000
   38        2.473982   0.000000
   39        2.947205   0.000000
   40        2.947253   0.000000
   41        3.553026   0.000000
   42        3.553108   0.000000
   43        4.011282   0.000000
   44        4.011294   0.000000
   45        4.513628   0.000000
   46        4.513641   0.000000
   47        4.872726   0.000000
   48        4.872736   0.000000
   49        5.256052   0.000000
   50        5.256284   0.000000
   51        5.261568   0.000000
   52        5.261754   0.000000
   53        5.878317   0.000000
   54        5.878340   0.000000
   55        5.923989   0.000000
   56        5.924029   0.000000
   57        6.294848   0.000000
   58        6.294899   0.000000
   59        6.583418   0.000000
   60        6.583469   0.000000
   61        6.657021   0.000000
   62        6.657022   0.000000
   63        7.258046   0.000000
   64        7.258195   0.000000
   65        7.272229   0.000000
   66        7.272303   0.000000
   67        7.579756   0.000000
   68        7.579810   0.000000
   69        7.754964   0.000000
   70        7.755006   0.000000
   71        7.896374   0.000000
   72        7.896374   0.000000
   73        8.317517   0.000000
   74        8.317552   0.000000
   75        9.018128   0.000000
   76        9.018161   0.000000
   77        9.478463   0.000000
   78        9.478514   0.000000
   79        9.611902   0.000000
   80        9.611923   0.000000
   81        9.864220   0.000000
   82        9.864253   0.000000
   83        9.935787   0.000000
   84        9.935789   0.000000
   85       10.089010   0.000000
   86       10.089019   0.000000
   87       10.160173   0.000000
   88       10.160182   0.000000
   89       10.562784   0.000000
   90       10.562804   0.000000
   91       10.642023   0.000000
   92       10.642057   0.000000
   93       11.194596   0.000000
   94       11.194603   0.000000
   95       11.291293   0.000000
   96       11.291346   0.000000
   97       11.491833   0.000000
   98       11.491853   0.000000
   99       11.681815   0.000000
  100       11.681816   0.000000
  101       12.311232   0.000000
  102       12.311244   0.000000
  103       12.684464   0.000000
  104       12.684478   0.000000
  105       12.728750   0.000000
  106       12.728789   0.000000
  107       12.969294   0.000000
  108       12.969345   0.000000
  109       13.003027   0.000000
  110       13.003055   0.000000
  111       13.120418   0.000000
  112       13.120441   0.000000
  113       13.353587   0.000000
  114       13.353617   0.000000
  115       13.434397   0.000000
  116       13.434439   0.000000
  117       13.471852   0.000000
  118       13.471908   0.000000
  119       13.671956   0.000000
  120       13.672009   0.000000
  121       13.701641   0.000000
  122       13.701677   0.000000
  123       13.739466   0.000000
  124       13.739541   0.000000
  125       13.785602   0.000000
  126       13.785634   0.000000
  127       14.017774   0.000000
  128       14.017884   0.000000
  129       14.035583   0.000000
  130       14.035644   0.000000
  131       14.290734   0.000000
  132       14.290764   0.000000
  133       14.344130   0.000000
  134       14.344371   0.000000
  135       14.392142   0.000000
  136       14.392220   0.000000
  137       14.665732   0.000000
  138       14.665903   0.000000
  139       14.891740   0.000000
  140       14.894467   0.000000
  141       14.896472   0.000000
  142       14.905581   0.000000
  143       15.074419   0.000000
  144       15.083699   0.000000
 
  0.0000000E+00  0.2200000E+00  0.0000000E+00  0.4901961E-02
    1      -16.993656   1.000000
    2      -16.993656   1.000000
    3      -15.698349   1.000000
    4      -15.698349   1.000000
    5      -11.085118   1.000000
    6      -11.085117   1.000000
    7       -9.309193   1.000000
    8       -9.309192   1.000000
    9       -6.792084   1.000000
   10       -6.792084   1.000000
   11       -5.979649   1.000000
   12       -5.979648   1.000000
   13       -5.809697   1.000000
   14       -5.809697   1.000000
   15       -4.780625   1.000000
   16       -4.780625   1.000000
   17       -3.962471   1.000000
   18       -3.962415   1.000000
   19       -3.900071   1.000000
   20       -3.900017   1.000000
   21       -0.979195   0.000000
   22       -0.979180   0.000000
   23       -0.604066   0.000000
   24       -0.604049   0.000000
   25       -0.207434   0.000000
   26       -0.207432   0.000000
   27        0.722820   0.000000
   28        0.722820   0.000000
   29        1.417696   0.000000
   30        1.417704   0.000000
   31        2.028817   0.000000
   32        2.028820   0.000000
   33        2.078154   0.000000
   34        2.078194   0.000000
   35        2.155381   0.000000
   36        2.155420   0.000000
   37        2.472843   0.000000
   38        2.472862   0.000000
   39        2.915802   0.000000
   40        2.915850   0.000000
   41        3.529992   0.000000
   42        3.530073   0.000000
   43        4.002729   0.000000
   44        4.002742   0.000000
   45        4.519443   0.000000
   46        4.519455   0.000000
   47        4.867746   0.000000
   48        4.867757   0.000000
   49        5.231767   0.000000
   50        5.231813   0.000000
   51        5.267451   0.000000
   52        5.267487   0.000000
   53        5.916345   0.000000
   54        5.916368   0.000000
   55        5.988652   0.000000
   56        5.988685   0.000000
   57        6.394356   0.000000
   58        6.394407   0.000000
   59        6.618390   0.000000
   60        6.618393   0.000000
   61        6.639487   0.000000
   62        6.639538   0.000000
   63        7.284375   0.000000
   64        7.284500   0.000000
   65        7.304760   0.000000
   66        7.304817   0.000000
   67        7.627531   0.000000
   68        7.627598   0.000000
   69        7.714389   0.000000
   70        7.714431   0.000000
   71        7.810442   0.000000
   72        7.810442   0.000000
   73        8.380925   0.000000
   74        8.380959   0.000000
   75        9.088091   0.000000
   76        9.088122   0.000000
   77        9.564251   0.000000
   78        9.564356   0.000000
   79        9.582608   0.000000
   80        9.582671   0.000000
   81        9.888607   0.000000
   82        9.888610   0.000000
   83        9.905727   0.000000
   84        9.905759   0.000000
   85       10.055961   0.000000
   86       10.055969   0.000000
   87       10.136593   0.000000
   88       10.136600   0.000000
   89       10.522261   0.000000
   90       10.522283   0.000000
   91       10.656282   0.000000
   92       10.656311   0.000000
   93       11.206551   0.000000
   94       11.206555   0.000000
   95       11.371225   0.000000
   96       11.371270   0.000000
   97       11.517144   0.000000
   98       11.517174   0.000000
   99       11.657399   0.000000
  100       11.657400   0.000000
  101       12.266919   0.000000
  102       12.266942   0.000000
  103       12.652440   0.000000
  104       12.652467   0.000000
  105       12.659108   0.000000
  106       12.659146   0.000000
  107       12.865761   0.000000
  108       12.865800   0.000000
  109       12.930132   0.000000
  110       12.930163   0.000000
  111       13.089876   0.000000
  112       13.089899   0.000000
  113       13.308312   0.000000
  114       13.308338   0.000000
  115       13.360872   0.000000
  116       13.360917   0.000000
  117       13.452262   0.000000
  118       13.452313   0.000000
  119       13.641095   0.000000
  120       13.641147   0.000000
  121       13.661719   0.000000
  122       13.661753   0.000000
  123       13.705723   0.000000
  124       13.705795   0.000000
  125       13.781991   0.000000
  126       13.782021   0.000000
  127       13.984977   0.000000
  128       13.985074   0.000000
  129       14.004433   0.000000
  130       14.004450   0.000000
  131       14.267080   0.000000
  132       14.267112   0.000000
  133       14.313430   0.000000
  134       14.313467   0.000000
  135       14.431035   0.000000
  136       14.431298   0.000000
  137       14.629566   0.000000
  138       14.629959   0.000000
  139       14.835430   0.000000
  140       14.839670   0.000000
  141       14.879502   0.000000
  142       14.886615   0.000000
  143       15.053786   0.000000
  144       15.071772   0.000000
 
  0.0000000E+00  0.2100000E+00  0.0000000E+00  0.4901961E-02
    1      -17.010608   1.000000
    2      -17.010608   1.000000
    3      -15.685412   1.000000
    4      -15.685412   1.000000
    5      -11.074987   1.000000
    6      -11.074986   1.000000
    7       -9.245177   1.000000
    8       -9.245176   1.000000
    9       -6.826737   1.000000
   10       -6.826737   1.000000
   11       -6.029861   1.000000
   12       -6.029860   1.000000
   13       -5.826883   1.000000
   14       -5.826882   1.000000
   15       -4.774022   1.000000
   16       -4.774021   1.000000
   17       -4.008350   1.000000
   18       -4.008324   1.000000
   19       -3.870060   1.000000
   20       -3.870036   1.000000
   21       -1.014558   0.000000
   22       -1.014547   0.000000
   23       -0.549830   0.000000
   24       -0.549816   0.000000
   25       -0.212910   0.000000
   26       -0.212908   0.000000
   27        0.746266   0.000000
   28        0.746267   0.000000
   29        1.404758   0.000000
   30        1.404767   0.000000
   31        2.045431   0.000000
   32        2.045473   0.000000
   33        2.082703   0.000000
   34        2.082711   0.000000
   35        2.146203   0.000000
   36        2.146240   0.000000
   37        2.476521   0.000000
   38        2.476536   0.000000
   39        2.885646   0.000000
   40        2.885694   0.000000
   41        3.508820   0.000000
   42        3.508900   0.000000
   43        3.992556   0.000000
   44        3.992572   0.000000
   45        4.530356   0.000000
   46        4.530367   0.000000
   47        4.861785   0.000000
   48        4.861796   0.000000
   49        5.206225   0.000000
   50        5.206258   0.000000
   51        5.270124   0.000000
   52        5.270166   0.000000
   53        5.946745   0.000000
   54        5.946766   0.000000
   55        6.059420   0.000000
   56        6.059448   0.000000
   57        6.497598   0.000000
   58        6.497651   0.000000
   59        6.584057   0.000000
   60        6.584057   0.000000
   61        6.690715   0.000000
   62        6.690770   0.000000
   63        7.290313   0.000000
   64        7.290389   0.000000
   65        7.347255   0.000000
   66        7.347267   0.000000
   67        7.674391   0.000000
   68        7.674441   0.000000
   69        7.697283   0.000000
   70        7.697345   0.000000
   71        7.725322   0.000000
   72        7.725323   0.000000
   73        8.448063   0.000000
   74        8.448095   0.000000
   75        9.144065   0.000000
   76        9.144092   0.000000
   77        9.546364   0.000000
   78        9.546391   0.000000
   79        9.656980   0.000000
   80        9.657016   0.000000
   81        9.848260   0.000000
   82        9.848264   0.000000
   83        9.935483   0.000000
   84        9.935521   0.000000
   85        9.955884   0.000000
   86        9.955888   0.000000
   87       10.183252   0.000000
   88       10.183255   0.000000
   89       10.484531   0.000000
   90       10.484554   0.000000
   91       10.675569   0.000000
   92       10.675596   0.000000
   93       11.184088   0.000000
   94       11.184091   0.000000
   95       11.444292   0.000000
   96       11.444333   0.000000
   97       11.588495   0.000000
   98       11.588527   0.000000
   99       11.636644   0.000000
  100       11.636645   0.000000
  101       12.182897   0.000000
  102       12.182931   0.000000
  103       12.558085   0.000000
  104       12.558125   0.000000
  105       12.594711   0.000000
  106       12.594750   0.000000
  107       12.788969   0.000000
  108       12.788990   0.000000
  109       12.911307   0.000000
  110       12.911334   0.000000
  111       13.060411   0.000000
  112       13.060434   0.000000
  113       13.273397   0.000000
  114       13.273564   0.000000
  115       13.276952   0.000000
  116       13.277179   0.000000
  117       13.432138   0.000000
  118       13.432187   0.000000
  119       13.611197   0.000000
  120       13.611249   0.000000
  121       13.631916   0.000000
  122       13.631945   0.000000
  123       13.673331   0.000000
  124       13.673407   0.000000
  125       13.777619   0.000000
  126       13.777653   0.000000
  127       13.933427   0.000000
  128       13.933496   0.000000
  129       13.958577   0.000000
  130       13.958591   0.000000
  131       14.233195   0.000000
  132       14.233213   0.000000
  133       14.287559   0.000000
  134       14.287633   0.000000
  135       14.509681   0.000000
  136       14.510943   0.000000
  137       14.594628   0.000000
  138       14.595197   0.000000
  139       14.808010   0.000000
  140       14.818780   0.000000
  141       14.877204   0.000000
  142       14.882374   0.000000
  143       15.038283   0.000000
  144       15.065394   0.000000
 
  0.0000000E+00  0.2000000E+00  0.0000000E+00  0.4901961E-02
    1      -17.026860   1.000000
    2      -17.026860   1.000000
    3      -15.673190   1.000000
    4      -15.673190   1.000000
    5      -11.064064   1.000000
    6      -11.064063   1.000000
    7       -9.181034   1.000000
    8       -9.181033   1.000000
    9       -6.861320   1.000000
   10       -6.861319   1.000000
   11       -6.079816   1.000000
   12       -6.079815   1.000000
   13       -5.843147   1.000000
   14       -5.843147   1.000000
   15       -4.767941   1.000000
   16       -4.767940   1.000000
   17       -4.060840   1.000000
   18       -4.060825   1.000000
   19       -3.833334   1.000000
   20       -3.833320   1.000000
   21       -1.049578   0.000000
   22       -1.049568   0.000000
   23       -0.495259   0.000000
   24       -0.495247   0.000000
   25       -0.219300   0.000000
   26       -0.219298   0.000000
   27        0.770324   0.000000
   28        0.770324   0.000000
   29        1.390583   0.000000
   30        1.390592   0.000000
   31        2.015725   0.000000
   32        2.015767   0.000000
   33        2.109964   0.000000
   34        2.109999   0.000000
   35        2.159392   0.000000
   36        2.159404   0.000000
   37        2.483953   0.000000
   38        2.483964   0.000000
   39        2.856757   0.000000
   40        2.856805   0.000000
   41        3.489542   0.000000
   42        3.489622   0.000000
   43        3.980886   0.000000
   44        3.980903   0.000000
   45        4.546093   0.000000
   46        4.546103   0.000000
   47        4.855037   0.000000
   48        4.855048   0.000000
   49        5.182905   0.000000
   50        5.182934   0.000000
   51        5.267953   0.000000
   52        5.267998   0.000000
   53        5.968122   0.000000
   54        5.968140   0.000000
   55        6.135428   0.000000
   56        6.135453   0.000000
   57        6.548983   0.000000
   58        6.548984   0.000000
   59        6.603812   0.000000
   60        6.603866   0.000000
   61        6.743455   0.000000
   62        6.743509   0.000000
   63        7.283924   0.000000
   64        7.283983   0.000000
   65        7.399779   0.000000
   66        7.399787   0.000000
   67        7.633425   0.000000
   68        7.633449   0.000000
   69        7.644815   0.000000
   70        7.644836   0.000000
   71        7.779780   0.000000
   72        7.779854   0.000000
   73        8.517827   0.000000
   74        8.517858   0.000000
   75        9.178026   0.000000
   76        9.178046   0.000000
   77        9.528103   0.000000
   78        9.528124   0.000000
   79        9.729784   0.000000
   80        9.729832   0.000000
   81        9.817056   0.000000
   82        9.817068   0.000000
   83        9.857762   0.000000
   84        9.857763   0.000000
   85        9.963699   0.000000
   86        9.963737   0.000000
   87       10.229339   0.000000
   88       10.229340   0.000000
   89       10.450623   0.000000
   90       10.450647   0.000000
   91       10.694265   0.000000
   92       10.694289   0.000000
   93       11.153334   0.000000
   94       11.153337   0.000000
   95       11.504222   0.000000
   96       11.504258   0.000000
   97       11.619198   0.000000
   98       11.619199   0.000000
   99       11.684141   0.000000
  100       11.684174   0.000000
  101       12.082365   0.000000
  102       12.082408   0.000000
  103       12.434776   0.000000
  104       12.434816   0.000000
  105       12.493241   0.000000
  106       12.493296   0.000000
  107       12.758383   0.000000
  108       12.758394   0.000000
  109       12.915397   0.000000
  110       12.915426   0.000000
  111       13.032095   0.000000
  112       13.032119   0.000000
  113       13.184284   0.000000
  114       13.184298   0.000000
  115       13.254791   0.000000
  116       13.254840   0.000000
  117       13.412817   0.000000
  118       13.412867   0.000000
  119       13.582446   0.000000
  120       13.582499   0.000000
  121       13.607540   0.000000
  122       13.607569   0.000000
  123       13.642303   0.000000
  124       13.642377   0.000000
  125       13.760275   0.000000
  126       13.760326   0.000000
  127       13.884050   0.000000
  128       13.884125   0.000000
  129       13.899072   0.000000
  130       13.899082   0.000000
  131       14.183884   0.000000
  132       14.183928   0.000000
  133       14.308249   0.000000
  134       14.308702   0.000000
  135       14.560610   0.000000
  136       14.560962   0.000000
  137       14.569976   0.000000
  138       14.573034   0.000000
  139       14.808679   0.000000
  140       14.817313   0.000000
  141       14.893339   0.000000
  142       14.907930   0.000000
  143       15.024389   0.000000
  144       15.065129   0.000000
 
  0.0000000E+00  0.1900000E+00  0.0000000E+00  0.4901961E-02
    1      -17.042398   1.000000
    2      -17.042398   1.000000
    3      -15.661678   1.000000
    4      -15.661678   1.000000
    5      -11.052465   1.000000
    6      -11.052464   1.000000
    7       -9.116866   1.000000
    8       -9.116865   1.000000
    9       -6.895868   1.000000
   10       -6.895868   1.000000
   11       -6.129160   1.000000
   12       -6.129160   1.000000
   13       -5.858575   1.000000
   14       -5.858575   1.000000
   15       -4.762365   1.000000
   16       -4.762365   1.000000
   17       -4.114114   1.000000
   18       -4.114104   1.000000
   19       -3.795619   1.000000
   20       -3.795609   1.000000
   21       -1.083994   0.000000
   22       -1.083987   0.000000
   23       -0.440835   0.000000
   24       -0.440825   0.000000
   25       -0.226468   0.000000
   26       -0.226466   0.000000
   27        0.794837   0.000000
   28        0.794837   0.000000
   29        1.375605   0.000000
   30        1.375615   0.000000
   31        1.987034   0.000000
   32        1.987075   0.000000
   33        2.100612   0.000000
   34        2.100657   0.000000
   35        2.207361   0.000000
   36        2.207364   0.000000
   37        2.494088   0.000000
   38        2.494096   0.000000
   39        2.829153   0.000000
   40        2.829202   0.000000
   41        3.472180   0.000000
   42        3.472260   0.000000
   43        3.967945   0.000000
   44        3.967963   0.000000
   45        4.566203   0.000000
   46        4.566212   0.000000
   47        4.847554   0.000000
   48        4.847565   0.000000
   49        5.161948   0.000000
   50        5.161974   0.000000
   51        5.262310   0.000000
   52        5.262357   0.000000
   53        5.979918   0.000000
   54        5.979934   0.000000
   55        6.215493   0.000000
   56        6.215516   0.000000
   57        6.515040   0.000000
   58        6.515041   0.000000
   59        6.711410   0.000000
   60        6.711465   0.000000
   61        6.798208   0.000000
   62        6.798260   0.000000
   63        7.272643   0.000000
   64        7.272694   0.000000
   65        7.458849   0.000000
   66        7.458866   0.000000
   67        7.556472   0.000000
   68        7.556473   0.000000
   69        7.605907   0.000000
   70        7.605954   0.000000
   71        7.869395   0.000000
   72        7.869472   0.000000
   73        8.589225   0.000000
   74        8.589254   0.000000
   75        9.184162   0.000000
   76        9.184174   0.000000
   77        9.521209   0.000000
   78        9.521226   0.000000
   79        9.760810   0.000000
   80        9.760818   0.000000
   81        9.780517   0.000000
   82        9.780609   0.000000
   83        9.801669   0.000000
   84        9.801734   0.000000
   85       10.001207   0.000000
   86       10.001248   0.000000
   87       10.274095   0.000000
   88       10.274096   0.000000
   89       10.421789   0.000000
   90       10.421812   0.000000
   91       10.705796   0.000000
   92       10.705819   0.000000
   93       11.130731   0.000000
   94       11.130735   0.000000
   95       11.538466   0.000000
   96       11.538498   0.000000
   97       11.605966   0.000000
   98       11.605966   0.000000
   99       11.790808   0.000000
  100       11.790838   0.000000
  101       11.984838   0.000000
  102       11.984890   0.000000
  103       12.308249   0.000000
  104       12.308286   0.000000
  105       12.367875   0.000000
  106       12.367938   0.000000
  107       12.755395   0.000000
  108       12.755404   0.000000
  109       12.910038   0.000000
  110       12.910075   0.000000
  111       13.004949   0.000000
  112       13.004974   0.000000
  113       13.088937   0.000000
  114       13.088947   0.000000
  115       13.248783   0.000000
  116       13.248825   0.000000
  117       13.396724   0.000000
  118       13.396775   0.000000
  119       13.554935   0.000000
  120       13.554988   0.000000
  121       13.585189   0.000000
  122       13.585215   0.000000
  123       13.612636   0.000000
  124       13.612710   0.000000
  125       13.706891   0.000000
  126       13.706961   0.000000
  127       13.839074   0.000000
  128       13.839120   0.000000
  129       13.874325   0.000000
  130       13.874350   0.000000
  131       14.121651   0.000000
  132       14.121690   0.000000
  133       14.352453   0.000000
  134       14.352692   0.000000
  135       14.527959   0.000000
  136       14.528324   0.000000
  137       14.605530   0.000000
  138       14.607496   0.000000
  139       14.824515   0.000000
  140       14.848751   0.000000
  141       14.945384   0.000000
  142       14.957541   0.000000
  143       15.017947   0.000000
  144       15.033826   0.000000
 
  0.0000000E+00  0.1800000E+00  0.0000000E+00  0.4901961E-02
    1      -17.057212   1.000000
    2      -17.057212   1.000000
    3      -15.650865   1.000000
    4      -15.650865   1.000000
    5      -11.040311   1.000000
    6      -11.040311   1.000000
    7       -9.052786   1.000000
    8       -9.052785   1.000000
    9       -6.930418   1.000000
   10       -6.930418   1.000000
   11       -6.177603   1.000000
   12       -6.177603   1.000000
   13       -5.873212   1.000000
   14       -5.873212   1.000000
   15       -4.757284   1.000000
   16       -4.757283   1.000000
   17       -4.167089   1.000000
   18       -4.167081   1.000000
   19       -3.757907   1.000000
   20       -3.757900   1.000000
   21       -1.117639   0.000000
   22       -1.117633   0.000000
   23       -0.386945   0.000000
   24       -0.386936   0.000000
   25       -0.234259   0.000000
   26       -0.234257   0.000000
   27        0.819637   0.000000
   28        0.819637   0.000000
   29        1.360186   0.000000
   30        1.360196   0.000000
   31        1.959694   0.000000
   32        1.959736   0.000000
   33        2.084429   0.000000
   34        2.084476   0.000000
   35        2.260336   0.000000
   36        2.260338   0.000000
   37        2.506040   0.000000
   38        2.506046   0.000000
   39        2.802852   0.000000
   40        2.802902   0.000000
   41        3.456745   0.000000
   42        3.456824   0.000000
   43        3.954023   0.000000
   44        3.954042   0.000000
   45        4.590157   0.000000
   46        4.590166   0.000000
   47        4.839298   0.000000
   48        4.839310   0.000000
   49        5.143413   0.000000
   50        5.143438   0.000000
   51        5.254363   0.000000
   52        5.254412   0.000000
   53        5.982504   0.000000
   54        5.982517   0.000000
   55        6.298371   0.000000
   56        6.298392   0.000000
   57        6.481852   0.000000
   58        6.481853   0.000000
   59        6.819780   0.000000
   60        6.819837   0.000000
   61        6.856091   0.000000
   62        6.856140   0.000000
   63        7.260572   0.000000
   64        7.260618   0.000000
   65        7.474354   0.000000
   66        7.474355   0.000000
   67        7.514929   0.000000
   68        7.514957   0.000000
   69        7.586618   0.000000
   70        7.586660   0.000000
   71        7.962636   0.000000
   72        7.962714   0.000000
   73        8.661285   0.000000
   74        8.661311   0.000000
   75        9.165271   0.000000
   76        9.165279   0.000000
   77        9.517638   0.000000
   78        9.517652   0.000000
   79        9.671646   0.000000
   80        9.671646   0.000000
   81        9.794016   0.000000
   82        9.794151   0.000000
   83        9.808261   0.000000
   84        9.808354   0.000000
   85       10.056980   0.000000
   86       10.057020   0.000000
   87       10.316880   0.000000
   88       10.316880   0.000000
   89       10.399643   0.000000
   90       10.399666   0.000000
   91       10.705996   0.000000
   92       10.706017   0.000000
   93       11.123556   0.000000
   94       11.123562   0.000000
   95       11.527505   0.000000
   96       11.527532   0.000000
   97       11.596587   0.000000
   98       11.596587   0.000000
   99       11.901561   0.000000
  100       11.901598   0.000000
  101       11.904155   0.000000
  102       11.904200   0.000000
  103       12.197133   0.000000
  104       12.197164   0.000000
  105       12.235867   0.000000
  106       12.235934   0.000000
  107       12.760455   0.000000
  108       12.760464   0.000000
  109       12.884672   0.000000
  110       12.884723   0.000000
  111       12.978765   0.000000
  112       12.978792   0.000000
  113       12.996810   0.000000
  114       12.996815   0.000000
  115       13.245966   0.000000
  116       13.246007   0.000000
  117       13.386026   0.000000
  118       13.386079   0.000000
  119       13.528716   0.000000
  120       13.528770   0.000000
  121       13.562504   0.000000
  122       13.562527   0.000000
  123       13.584322   0.000000
  124       13.584396   0.000000
  125       13.632050   0.000000
  126       13.632120   0.000000
  127       13.800187   0.000000
  128       13.800235   0.000000
  129       13.887152   0.000000
  130       13.887162   0.000000
  131       14.052426   0.000000
  132       14.052472   0.000000
  133       14.406075   0.000000
  134       14.406164   0.000000
  135       14.496435   0.000000
  136       14.496884   0.000000
  137       14.618795   0.000000
  138       14.620751   0.000000
  139       14.846205   0.000000
  140       14.860950   0.000000
  141       15.006656   0.000000
  142       15.019070   0.000000
  143       15.037132   0.000000
  144       15.047245   0.000000
 
  0.0000000E+00  0.1700000E+00  0.0000000E+00  0.4901961E-02
    1      -17.071289   1.000000
    2      -17.071289   1.000000
    3      -15.640737   1.000000
    4      -15.640737   1.000000
    5      -11.027728   1.000000
    6      -11.027728   1.000000
    7       -8.988914   1.000000
    8       -8.988913   1.000000
    9       -6.964999   1.000000
   10       -6.964999   1.000000
   11       -6.224886   1.000000
   12       -6.224885   1.000000
   13       -5.887076   1.000000
   14       -5.887076   1.000000
   15       -4.752677   1.000000
   16       -4.752677   1.000000
   17       -4.219253   1.000000
   18       -4.219247   1.000000
   19       -3.720610   1.000000
   20       -3.720604   1.000000
   21       -1.150381   0.000000
   22       -1.150376   0.000000
   23       -0.333918   0.000000
   24       -0.333910   0.000000
   25       -0.242525   0.000000
   26       -0.242522   0.000000
   27        0.844563   0.000000
   28        0.844563   0.000000
   29        1.344623   0.000000
   30        1.344633   0.000000
   31        1.933751   0.000000
   32        1.933792   0.000000
   33        2.066864   0.000000
   34        2.066912   0.000000
   35        2.313006   0.000000
   36        2.313008   0.000000
   37        2.519175   0.000000
   38        2.519179   0.000000
   39        2.777873   0.000000
   40        2.777924   0.000000
   41        3.443236   0.000000
   42        3.443314   0.000000
   43        3.939433   0.000000
   44        3.939453   0.000000
   45        4.617324   0.000000
   46        4.617333   0.000000
   47        4.830175   0.000000
   48        4.830186   0.000000
   49        5.127279   0.000000
   50        5.127303   0.000000
   51        5.245056   0.000000
   52        5.245105   0.000000
   53        5.977050   0.000000
   54        5.977061   0.000000
   55        6.382649   0.000000
   56        6.382668   0.000000
   57        6.449766   0.000000
   58        6.449767   0.000000
   59        6.916233   0.000000
   60        6.916283   0.000000
   61        6.928265   0.000000
   62        6.928315   0.000000
   63        7.251201   0.000000
   64        7.251244   0.000000
   65        7.396326   0.000000
   66        7.396327   0.000000
   67        7.518673   0.000000
   68        7.518719   0.000000
   69        7.626412   0.000000
   70        7.626442   0.000000
   71        8.057287   0.000000
   72        8.057364   0.000000
   73        8.732970   0.000000
   74        8.732993   0.000000
   75        9.130176   0.000000
   76        9.130184   0.000000
   77        9.507909   0.000000
   78        9.507921   0.000000
   79        9.584508   0.000000
   80        9.584508   0.000000
   81        9.795726   0.000000
   82        9.795799   0.000000
   83        9.824549   0.000000
   84        9.824573   0.000000
   85       10.124169   0.000000
   86       10.124209   0.000000
   87       10.356980   0.000000
   88       10.356981   0.000000
   89       10.386464   0.000000
   90       10.386487   0.000000
   91       10.696615   0.000000
   92       10.696635   0.000000
   93       11.131805   0.000000
   94       11.131814   0.000000
   95       11.462417   0.000000
   96       11.462445   0.000000
   97       11.591229   0.000000
   98       11.591229   0.000000
   99       11.824953   0.000000
  100       11.825003   0.000000
  101       12.002077   0.000000
  102       12.002099   0.000000
  103       12.116931   0.000000
  104       12.116996   0.000000
  105       12.128089   0.000000
  106       12.128115   0.000000
  107       12.751912   0.000000
  108       12.751921   0.000000
  109       12.841646   0.000000
  110       12.841708   0.000000
  111       12.923869   0.000000
  112       12.923879   0.000000
  113       12.954641   0.000000
  114       12.954665   0.000000
  115       13.234597   0.000000
  116       13.234640   0.000000
  117       13.378182   0.000000
  118       13.378237   0.000000
  119       13.503814   0.000000
  120       13.503866   0.000000
  121       13.537868   0.000000
  122       13.537894   0.000000
  123       13.557347   0.000000
  124       13.557420   0.000000
  125       13.565340   0.000000
  126       13.565414   0.000000
  127       13.769125   0.000000
  128       13.769170   0.000000
  129       13.917626   0.000000
  130       13.917668   0.000000
  131       13.981930   0.000000
  132       13.981975   0.000000
  133       14.460190   0.000000
  134       14.460503   0.000000
  135       14.466960   0.000000
  136       14.467361   0.000000
  137       14.616814   0.000000
  138       14.617639   0.000000
  139       14.843208   0.000000
  140       14.847424   0.000000
  141       15.012431   0.000000
  142       15.026222   0.000000
  143       15.042975   0.000000
  144       15.081871   0.000000
 
  0.0000000E+00  0.1600000E+00  0.0000000E+00  0.4901961E-02
    1      -17.084617   1.000000
    2      -17.084617   1.000000
    3      -15.631285   1.000000
    4      -15.631284   1.000000
    5      -11.014846   1.000000
    6      -11.014846   1.000000
    7       -8.925386   1.000000
    8       -8.925385   1.000000
    9       -6.999636   1.000000
   10       -6.999636   1.000000
   11       -6.270780   1.000000
   12       -6.270779   1.000000
   13       -5.900178   1.000000
   14       -5.900177   1.000000
   15       -4.748534   1.000000
   16       -4.748534   1.000000
   17       -4.270239   1.000000
   18       -4.270233   1.000000
   19       -3.684000   1.000000
   20       -3.683996   1.000000
   21       -1.182111   0.000000
   22       -1.182106   0.000000
   23       -0.282070   0.000000
   24       -0.282059   0.000000
   25       -0.251121   0.000000
   26       -0.251115   0.000000
   27        0.869437   0.000000
   28        0.869438   0.000000
   29        1.329159   0.000000
   30        1.329170   0.000000
   31        1.909222   0.000000
   32        1.909264   0.000000
   33        2.049030   0.000000
   34        2.049079   0.000000
   35        2.364174   0.000000
   36        2.364176   0.000000
   37        2.533165   0.000000
   38        2.533168   0.000000
   39        2.754231   0.000000
   40        2.754283   0.000000
   41        3.431635   0.000000
   42        3.431712   0.000000
   43        3.924477   0.000000
   44        3.924498   0.000000
   45        4.647023   0.000000
   46        4.647032   0.000000
   47        4.820074   0.000000
   48        4.820085   0.000000
   49        5.113411   0.000000
   50        5.113434   0.000000
   51        5.235132   0.000000
   52        5.235182   0.000000
   53        5.965242   0.000000
   54        5.965252   0.000000
   55        6.417279   0.000000
   56        6.417280   0.000000
   57        6.468590   0.000000
   58        6.468608   0.000000
   59        6.980909   0.000000
   60        6.980951   0.000000
   61        7.029412   0.000000
   62        7.029468   0.000000
   63        7.250412   0.000000
   64        7.250451   0.000000
   65        7.320458   0.000000
   66        7.320459   0.000000
   67        7.495375   0.000000
   68        7.495425   0.000000
   69        7.701424   0.000000
   70        7.701456   0.000000
   71        8.151610   0.000000
   72        8.151686   0.000000
   73        8.803054   0.000000
   74        8.803075   0.000000
   75        9.086934   0.000000
   76        9.086945   0.000000
   77        9.488411   0.000000
   78        9.488419   0.000000
   79        9.503416   0.000000
   80        9.503418   0.000000
   81        9.781588   0.000000
   82        9.781628   0.000000
   83        9.855549   0.000000
   84        9.855563   0.000000
   85       10.190727   0.000000
   86       10.190766   0.000000
   87       10.381899   0.000000
   88       10.381919   0.000000
   89       10.396709   0.000000
   90       10.396711   0.000000
   91       10.685263   0.000000
   92       10.685283   0.000000
   93       11.150391   0.000000
   94       11.150403   0.000000
   95       11.359791   0.000000
   96       11.359823   0.000000
   97       11.589941   0.000000
   98       11.589941   0.000000
   99       11.721817   0.000000
  100       11.721862   0.000000
  101       11.944947   0.000000
  102       11.945007   0.000000
  103       12.112218   0.000000
  104       12.112258   0.000000
  105       12.157040   0.000000
  106       12.157075   0.000000
  107       12.699151   0.000000
  108       12.699163   0.000000
  109       12.786972   0.000000
  110       12.787034   0.000000
  111       12.900024   0.000000
  112       12.900032   0.000000
  113       12.931324   0.000000
  114       12.931348   0.000000
  115       13.211882   0.000000
  116       13.211928   0.000000
  117       13.364290   0.000000
  118       13.364349   0.000000
  119       13.480259   0.000000
  120       13.480311   0.000000
  121       13.510541   0.000000
  122       13.510572   0.000000
  123       13.521758   0.000000
  124       13.521827   0.000000
  125       13.531753   0.000000
  126       13.531826   0.000000
  127       13.747039   0.000000
  128       13.747079   0.000000
  129       13.914629   0.000000
  130       13.914710   0.000000
  131       13.954594   0.000000
  132       13.954640   0.000000
  133       14.436529   0.000000
  134       14.436675   0.000000
  135       14.512294   0.000000
  136       14.513390   0.000000
  137       14.607509   0.000000
  138       14.610061   0.000000
  139       14.781658   0.000000
  140       14.800739   0.000000
  141       14.998007   0.000000
  142       15.035206   0.000000
  143       15.065521   0.000000
  144       15.142178   0.000000
 
  0.0000000E+00  0.1500000E+00  0.0000000E+00  0.4901961E-02
    1      -17.097187   1.000000
    2      -17.097187   1.000000
    3      -15.622496   1.000000
    4      -15.622496   1.000000
    5      -11.001800   1.000000
    6      -11.001800   1.000000
    7       -8.862352   1.000000
    8       -8.862351   1.000000
    9       -7.034343   1.000000
   10       -7.034343   1.000000
   11       -6.315073   1.000000
   12       -6.315072   1.000000
   13       -5.912519   1.000000
   14       -5.912519   1.000000
   15       -4.744844   1.000000
   16       -4.744844   1.000000
   17       -4.319725   1.000000
   18       -4.319721   1.000000
   19       -3.648302   1.000000
   20       -3.648299   1.000000
   21       -1.212725   0.000000
   22       -1.212721   0.000000
   23       -0.259925   0.000000
   24       -0.259921   0.000000
   25       -0.231653   0.000000
   26       -0.231653   0.000000
   27        0.894078   0.000000
   28        0.894079   0.000000
   29        1.313994   0.000000
   30        1.314005   0.000000
   31        1.886121   0.000000
   32        1.886162   0.000000
   33        2.031426   0.000000
   34        2.031475   0.000000
   35        2.412902   0.000000
   36        2.412905   0.000000
   37        2.548089   0.000000
   38        2.548093   0.000000
   39        2.731944   0.000000
   40        2.731998   0.000000
   41        3.421909   0.000000
   42        3.421985   0.000000
   43        3.909429   0.000000
   44        3.909451   0.000000
   45        4.678566   0.000000
   46        4.678574   0.000000
   47        4.808959   0.000000
   48        4.808969   0.000000
   49        5.101571   0.000000
   50        5.101595   0.000000
   51        5.225205   0.000000
   52        5.225254   0.000000
   53        5.948971   0.000000
   54        5.948979   0.000000
   55        6.387247   0.000000
   56        6.387248   0.000000
   57        6.551883   0.000000
   58        6.551900   0.000000
   59        7.047026   0.000000
   60        7.047063   0.000000
   61        7.110359   0.000000
   62        7.110415   0.000000
   63        7.246123   0.000000
   64        7.246125   0.000000
   65        7.275918   0.000000
   66        7.275954   0.000000
   67        7.470711   0.000000
   68        7.470763   0.000000
   69        7.784710   0.000000
   70        7.784747   0.000000
   71        8.243799   0.000000
   72        8.243873   0.000000
   73        8.869989   0.000000
   74        8.870007   0.000000
   75        9.041179   0.000000
   76        9.041192   0.000000
   77        9.420008   0.000000
   78        9.420008   0.000000
   79        9.471082   0.000000
   80        9.471092   0.000000
   81        9.761436   0.000000
   82        9.761468   0.000000
   83        9.888598   0.000000
   84        9.888622   0.000000
   85       10.245935   0.000000
   86       10.245972   0.000000
   87       10.393312   0.000000
   88       10.393333   0.000000
   89       10.430455   0.000000
   90       10.430456   0.000000
   91       10.682444   0.000000
   92       10.682466   0.000000
   93       11.172624   0.000000
   94       11.172635   0.000000
   95       11.239421   0.000000
   96       11.239463   0.000000
   97       11.592415   0.000000
   98       11.592418   0.000000
   99       11.597933   0.000000
  100       11.597975   0.000000
  101       11.820489   0.000000
  102       11.820551   0.000000
  103       12.124080   0.000000
  104       12.124125   0.000000
  105       12.263944   0.000000
  106       12.263975   0.000000
  107       12.615240   0.000000
  108       12.615253   0.000000
  109       12.728119   0.000000
  110       12.728182   0.000000
  111       12.907705   0.000000
  112       12.907723   0.000000
  113       12.913807   0.000000
  114       12.913811   0.000000
  115       13.181416   0.000000
  116       13.181461   0.000000
  117       13.340812   0.000000
  118       13.340875   0.000000
  119       13.458096   0.000000
  120       13.458148   0.000000
  121       13.481356   0.000000
  122       13.481387   0.000000
  123       13.502761   0.000000
  124       13.502800   0.000000
  125       13.507622   0.000000
  126       13.507692   0.000000
  127       13.732699   0.000000
  128       13.732727   0.000000
  129       13.856598   0.000000
  130       13.856668   0.000000
  131       13.986511   0.000000
  132       13.986538   0.000000
  133       14.408409   0.000000
  134       14.408829   0.000000
  135       14.553630   0.000000
  136       14.558910   0.000000
  137       14.594092   0.000000
  138       14.595961   0.000000
  139       14.688868   0.000000
  140       14.690421   0.000000
  141       14.969766   0.000000
  142       14.983301   0.000000
  143       15.032819   0.000000
  144       15.099664   0.000000
 
  0.0000000E+00  0.1400000E+00  0.0000000E+00  0.4901961E-02
    1      -17.108990   1.000000
    2      -17.108990   1.000000
    3      -15.614359   1.000000
    4      -15.614358   1.000000
    5      -10.988727   1.000000
    6      -10.988726   1.000000
    7       -8.799982   1.000000
    8       -8.799980   1.000000
    9       -7.069122   1.000000
   10       -7.069122   1.000000
   11       -6.357563   1.000000
   12       -6.357563   1.000000
   13       -5.924099   1.000000
   14       -5.924099   1.000000
   15       -4.741606   1.000000
   16       -4.741606   1.000000
   17       -4.367413   1.000000
   18       -4.367409   1.000000
   19       -3.613718   1.000000
   20       -3.613715   1.000000
   21       -1.242123   0.000000
   22       -1.242120   0.000000
   23       -0.268761   0.000000
   24       -0.268760   0.000000
   25       -0.183001   0.000000
   26       -0.182998   0.000000
   27        0.918302   0.000000
   28        0.918302   0.000000
   29        1.299295   0.000000
   30        1.299306   0.000000
   31        1.864458   0.000000
   32        1.864499   0.000000
   33        2.014357   0.000000
   34        2.014407   0.000000
   35        2.457843   0.000000
   36        2.457847   0.000000
   37        2.564689   0.000000
   38        2.564696   0.000000
   39        2.711034   0.000000
   40        2.711090   0.000000
   41        3.414009   0.000000
   42        3.414084   0.000000
   43        3.894539   0.000000
   44        3.894561   0.000000
   45        4.711188   0.000000
   46        4.711196   0.000000
   47        4.796868   0.000000
   48        4.796876   0.000000
   49        5.091403   0.000000
   50        5.091426   0.000000
   51        5.215790   0.000000
   52        5.215840   0.000000
   53        5.930088   0.000000
   54        5.930095   0.000000
   55        6.357959   0.000000
   56        6.357960   0.000000
   57        6.632368   0.000000
   58        6.632384   0.000000
   59        7.112805   0.000000
   60        7.112836   0.000000
   61        7.150794   0.000000
   62        7.150842   0.000000
   63        7.177980   0.000000
   64        7.177981   0.000000
   65        7.345492   0.000000
   66        7.345535   0.000000
   67        7.448464   0.000000
   68        7.448518   0.000000
   69        7.872207   0.000000
   70        7.872248   0.000000
   71        8.331495   0.000000
   72        8.331565   0.000000
   73        8.931520   0.000000
   74        8.931536   0.000000
   75        8.997514   0.000000
   76        8.997529   0.000000
   77        9.344883   0.000000
   78        9.344884   0.000000
   79        9.449011   0.000000
   80        9.449023   0.000000
   81        9.740976   0.000000
   82        9.741003   0.000000
   83        9.915881   0.000000
   84        9.915909   0.000000
   85       10.280947   0.000000
   86       10.280982   0.000000
   87       10.417364   0.000000
   88       10.417384   0.000000
   89       10.461588   0.000000
   90       10.461588   0.000000
   91       10.697683   0.000000
   92       10.697711   0.000000
   93       11.112289   0.000000
   94       11.112321   0.000000
   95       11.191644   0.000000
   96       11.191675   0.000000
   97       11.465790   0.000000
   98       11.465831   0.000000
   99       11.599241   0.000000
  100       11.599242   0.000000
  101       11.701542   0.000000
  102       11.701602   0.000000
  103       12.133569   0.000000
  104       12.133618   0.000000
  105       12.350736   0.000000
  106       12.350761   0.000000
  107       12.540004   0.000000
  108       12.540020   0.000000
  109       12.675338   0.000000
  110       12.675403   0.000000
  111       12.888432   0.000000
  112       12.888456   0.000000
  113       12.934302   0.000000
  114       12.934314   0.000000
  115       13.147957   0.000000
  116       13.148000   0.000000
  117       13.314093   0.000000
  118       13.314157   0.000000
  119       13.437334   0.000000
  120       13.437386   0.000000
  121       13.453167   0.000000
  122       13.453199   0.000000
  123       13.484337   0.000000
  124       13.484408   0.000000
  125       13.499290   0.000000
  126       13.499323   0.000000
  127       13.717487   0.000000
  128       13.717514   0.000000
  129       13.818558   0.000000
  130       13.818628   0.000000
  131       14.002777   0.000000
  132       14.002826   0.000000
  133       14.381310   0.000000
  134       14.381326   0.000000
  135       14.573002   0.000000
  136       14.573572   0.000000
  137       14.580914   0.000000
  138       14.581771   0.000000
  139       14.583850   0.000000
  140       14.585033   0.000000
  141       14.933206   0.000000
  142       14.957900   0.000000
  143       15.015307   0.000000
  144       15.055106   0.000000
 
  0.0000000E+00  0.1300000E+00  0.0000000E+00  0.4901961E-02
    1      -17.120016   1.000000
    2      -17.120016   1.000000
    3      -15.606856   1.000000
    4      -15.606856   1.000000
    5      -10.975764   1.000000
    6      -10.975763   1.000000
    7       -8.738463   1.000000
    8       -8.738462   1.000000
    9       -7.103951   1.000000
   10       -7.103950   1.000000
   11       -6.398058   1.000000
   12       -6.398058   1.000000
   13       -5.934913   1.000000
   14       -5.934913   1.000000
   15       -4.738822   1.000000
   16       -4.738822   1.000000
   17       -4.413008   1.000000
   18       -4.413004   1.000000
   19       -3.580436   1.000000
   20       -3.580433   1.000000
   21       -1.270204   0.000000
   22       -1.270201   0.000000
   23       -0.277530   0.000000
   24       -0.277529   0.000000
   25       -0.136343   0.000000
   26       -0.136340   0.000000
   27        0.941922   0.000000
   28        0.941922   0.000000
   29        1.285197   0.000000
   30        1.285209   0.000000
   31        1.844242   0.000000
   32        1.844284   0.000000
   33        1.998028   0.000000
   34        1.998078   0.000000
   35        2.496748   0.000000
   36        2.496754   0.000000
   37        2.584728   0.000000
   38        2.584738   0.000000
   39        2.691529   0.000000
   40        2.691588   0.000000
   41        3.407861   0.000000
   42        3.407935   0.000000
   43        3.880014   0.000000
   44        3.880036   0.000000
   45        4.743912   0.000000
   46        4.743924   0.000000
   47        4.784110   0.000000
   48        4.784120   0.000000
   49        5.082478   0.000000
   50        5.082502   0.000000
   51        5.207341   0.000000
   52        5.207390   0.000000
   53        5.910265   0.000000
   54        5.910271   0.000000
   55        6.329793   0.000000
   56        6.329793   0.000000
   57        6.707048   0.000000
   58        6.707063   0.000000
   59        7.108707   0.000000
   60        7.108708   0.000000
   61        7.165195   0.000000
   62        7.165237   0.000000
   63        7.183324   0.000000
   64        7.183353   0.000000
   65        7.430665   0.000000
   66        7.430721   0.000000
   67        7.447026   0.000000
   68        7.447072   0.000000
   69        7.962499   0.000000
   70        7.962544   0.000000
   71        8.411173   0.000000
   72        8.411238   0.000000
   73        8.956506   0.000000
   74        8.956525   0.000000
   75        8.988961   0.000000
   76        8.988966   0.000000
   77        9.273865   0.000000
   78        9.273865   0.000000
   79        9.429161   0.000000
   80        9.429177   0.000000
   81        9.724591   0.000000
   82        9.724615   0.000000
   83        9.934466   0.000000
   84        9.934496   0.000000
   85       10.292793   0.000000
   86       10.292828   0.000000
   87       10.450993   0.000000
   88       10.451012   0.000000
   89       10.489351   0.000000
   90       10.489351   0.000000
   91       10.733298   0.000000
   92       10.733333   0.000000
   93       10.985377   0.000000
   94       10.985415   0.000000
   95       11.198156   0.000000
   96       11.198192   0.000000
   97       11.334143   0.000000
   98       11.334182   0.000000
   99       11.600442   0.000000
  100       11.600493   0.000000
  101       11.609490   0.000000
  102       11.609491   0.000000
  103       12.120271   0.000000
  104       12.120323   0.000000
  105       12.342834   0.000000
  106       12.342846   0.000000
  107       12.547987   0.000000
  108       12.548015   0.000000
  109       12.640424   0.000000
  110       12.640485   0.000000
  111       12.869329   0.000000
  112       12.869354   0.000000
  113       12.956367   0.000000
  114       12.956384   0.000000
  115       13.115372   0.000000
  116       13.115409   0.000000
  117       13.289084   0.000000
  118       13.289147   0.000000
  119       13.417980   0.000000
  120       13.418033   0.000000
  121       13.429810   0.000000
  122       13.429844   0.000000
  123       13.462793   0.000000
  124       13.462865   0.000000
  125       13.502923   0.000000
  126       13.502954   0.000000
  127       13.687208   0.000000
  128       13.687246   0.000000
  129       13.815897   0.000000
  130       13.815962   0.000000
  131       13.995297   0.000000
  132       13.995324   0.000000
  133       14.355464   0.000000
  134       14.355520   0.000000
  135       14.461905   0.000000
  136       14.462530   0.000000
  137       14.565036   0.000000
  138       14.565557   0.000000
  139       14.588724   0.000000
  140       14.591033   0.000000
  141       14.945801   0.000000
  142       14.957921   0.000000
  143       14.977673   0.000000
  144       15.010504   0.000000
 
  0.0000000E+00  0.1200000E+00  0.0000000E+00  0.4901961E-02
    1      -17.130258   1.000000
    2      -17.130258   1.000000
    3      -15.599977   1.000000
    4      -15.599977   1.000000
    5      -10.963051   1.000000
    6      -10.963050   1.000000
    7       -8.678020   1.000000
    8       -8.678019   1.000000
    9       -7.138785   1.000000
   10       -7.138784   1.000000
   11       -6.436378   1.000000
   12       -6.436377   1.000000
   13       -5.944956   1.000000
   14       -5.944956   1.000000
   15       -4.736509   1.000000
   16       -4.736509   1.000000
   17       -4.456222   1.000000
   18       -4.456219   1.000000
   19       -3.548642   1.000000
   20       -3.548640   1.000000
   21       -1.296864   0.000000
   22       -1.296861   0.000000
   23       -0.286111   0.000000
   24       -0.286111   0.000000
   25       -0.091946   0.000000
   26       -0.091943   0.000000
   27        0.964744   0.000000
   28        0.964744   0.000000
   29        1.271815   0.000000
   30        1.271827   0.000000
   31        1.825484   0.000000
   32        1.825525   0.000000
   33        1.982586   0.000000
   34        1.982636   0.000000
   35        2.526907   0.000000
   36        2.526915   0.000000
   37        2.610465   0.000000
   38        2.610482   0.000000
   39        2.673498   0.000000
   40        2.673564   0.000000
   41        3.403372   0.000000
   42        3.403444   0.000000
   43        3.866031   0.000000
   44        3.866054   0.000000
   45        4.766397   0.000000
   46        4.766449   0.000000
   47        4.780333   0.000000
   48        4.780383   0.000000
   49        5.074336   0.000000
   50        5.074360   0.000000
   51        5.200279   0.000000
   52        5.200327   0.000000
   53        5.890900   0.000000
   54        5.890905   0.000000
   55        6.302880   0.000000
   56        6.302880   0.000000
   57        6.772265   0.000000
   58        6.772280   0.000000
   59        7.046682   0.000000
   60        7.046682   0.000000
   61        7.182915   0.000000
   62        7.182957   0.000000
   63        7.239770   0.000000
   64        7.239796   0.000000
   65        7.421505   0.000000
   66        7.421562   0.000000
   67        7.559893   0.000000
   68        7.559942   0.000000
   69        8.054650   0.000000
   70        8.054698   0.000000
   71        8.477444   0.000000
   72        8.477500   0.000000
   73        8.930899   0.000000
   74        8.930921   0.000000
   75        9.032223   0.000000
   76        9.032227   0.000000
   77        9.207345   0.000000
   78        9.207345   0.000000
   79        9.413373   0.000000
   80        9.413393   0.000000
   81        9.716316   0.000000
   82        9.716338   0.000000
   83        9.944991   0.000000
   84        9.945022   0.000000
   85       10.286390   0.000000
   86       10.286423   0.000000
   87       10.483762   0.000000
   88       10.483784   0.000000
   89       10.513730   0.000000
   90       10.513730   0.000000
   91       10.780606   0.000000
   92       10.780648   0.000000
   93       10.865499   0.000000
   94       10.865536   0.000000
   95       11.181730   0.000000
   96       11.181773   0.000000
   97       11.208952   0.000000
   98       11.208995   0.000000
   99       11.531890   0.000000
  100       11.531928   0.000000
  101       11.622705   0.000000
  102       11.622705   0.000000
  103       12.074967   0.000000
  104       12.075023   0.000000
  105       12.259605   0.000000
  106       12.259612   0.000000
  107       12.613472   0.000000
  108       12.613526   0.000000
  109       12.629155   0.000000
  110       12.629191   0.000000
  111       12.851587   0.000000
  112       12.851612   0.000000
  113       12.979675   0.000000
  114       12.979703   0.000000
  115       13.086110   0.000000
  116       13.086136   0.000000
  117       13.266888   0.000000
  118       13.266951   0.000000
  119       13.400072   0.000000
  120       13.400124   0.000000
  121       13.415020   0.000000
  122       13.415055   0.000000
  123       13.442585   0.000000
  124       13.442657   0.000000
  125       13.511437   0.000000
  126       13.511465   0.000000
  127       13.646144   0.000000
  128       13.646191   0.000000
  129       13.843706   0.000000
  130       13.843769   0.000000
  131       13.962525   0.000000
  132       13.962543   0.000000
  133       14.330531   0.000000
  134       14.330597   0.000000
  135       14.343975   0.000000
  136       14.344049   0.000000
  137       14.550590   0.000000
  138       14.550811   0.000000
  139       14.588040   0.000000
  140       14.589903   0.000000
  141       14.955117   0.000000
  142       14.959060   0.000000
  143       14.978559   0.000000
  144       14.987311   0.000000
 
  0.0000000E+00  0.1100000E+00  0.0000000E+00  0.4901961E-02
    1      -17.139709   1.000000
    2      -17.139709   1.000000
    3      -15.593707   1.000000
    4      -15.593707   1.000000
    5      -10.950726   1.000000
    6      -10.950726   1.000000
    7       -8.618907   1.000000
    8       -8.618906   1.000000
    9       -7.173542   1.000000
   10       -7.173541   1.000000
   11       -6.472349   1.000000
   12       -6.472349   1.000000
   13       -5.954223   1.000000
   14       -5.954223   1.000000
   15       -4.734701   1.000000
   16       -4.734701   1.000000
   17       -4.496759   1.000000
   18       -4.496756   1.000000
   19       -3.518521   1.000000
   20       -3.518519   1.000000
   21       -1.321993   0.000000
   22       -1.321991   0.000000
   23       -0.294393   0.000000
   24       -0.294393   0.000000
   25       -0.050053   0.000000
   26       -0.050050   0.000000
   27        0.986579   0.000000
   28        0.986580   0.000000
   29        1.259247   0.000000
   30        1.259258   0.000000
   31        1.808191   0.000000
   32        1.808232   0.000000
   33        1.968141   0.000000
   34        1.968191   0.000000
   35        2.547949   0.000000
   36        2.547958   0.000000
   37        2.641182   0.000000
   38        2.641234   0.000000
   39        2.657692   0.000000
   40        2.657794   0.000000
   41        3.400420   0.000000
   42        3.400492   0.000000
   43        3.852743   0.000000
   44        3.852766   0.000000
   45        4.754011   0.000000
   46        4.754032   0.000000
   47        4.809692   0.000000
   48        4.809713   0.000000
   49        5.066575   0.000000
   50        5.066601   0.000000
   51        5.195006   0.000000
   52        5.195053   0.000000
   53        5.873082   0.000000
   54        5.873087   0.000000
   55        6.277345   0.000000
   56        6.277345   0.000000
   57        6.823974   0.000000
   58        6.823991   0.000000
   59        6.988117   0.000000
   60        6.988117   0.000000
   61        7.208536   0.000000
   62        7.208575   0.000000
   63        7.281690   0.000000
   64        7.281717   0.000000
   65        7.430005   0.000000
   66        7.430058   0.000000
   67        7.677418   0.000000
   68        7.677468   0.000000
   69        8.147803   0.000000
   70        8.147855   0.000000
   71        8.523359   0.000000
   72        8.523403   0.000000
   73        8.921783   0.000000
   74        8.921811   0.000000
   75        9.064167   0.000000
   76        9.064172   0.000000
   77        9.145548   0.000000
   78        9.145548   0.000000
   79        9.403458   0.000000
   80        9.403484   0.000000
   81        9.719520   0.000000
   82        9.719540   0.000000
   83        9.949738   0.000000
   84        9.949770   0.000000
   85       10.269296   0.000000
   86       10.269328   0.000000
   87       10.493048   0.000000
   88       10.493074   0.000000
   89       10.534702   0.000000
   90       10.534702   0.000000
   91       10.765559   0.000000
   92       10.765600   0.000000
   93       10.820927   0.000000
   94       10.820971   0.000000
   95       11.099312   0.000000
   96       11.099334   0.000000
   97       11.145261   0.000000
   98       11.145330   0.000000
   99       11.503248   0.000000
  100       11.503275   0.000000
  101       11.638693   0.000000
  102       11.638694   0.000000
  103       12.001817   0.000000
  104       12.001878   0.000000
  105       12.165423   0.000000
  106       12.165428   0.000000
  107       12.635166   0.000000
  108       12.635234   0.000000
  109       12.661601   0.000000
  110       12.661608   0.000000
  111       12.835233   0.000000
  112       12.835258   0.000000
  113       13.012615   0.000000
  114       13.012678   0.000000
  115       13.061677   0.000000
  116       13.061698   0.000000
  117       13.247282   0.000000
  118       13.247344   0.000000
  119       13.383586   0.000000
  120       13.383638   0.000000
  121       13.411428   0.000000
  122       13.411462   0.000000
  123       13.423839   0.000000
  124       13.423909   0.000000
  125       13.524479   0.000000
  126       13.524503   0.000000
  127       13.603223   0.000000
  128       13.603277   0.000000
  129       13.889543   0.000000
  130       13.889695   0.000000
  131       13.909784   0.000000
  132       13.909875   0.000000
  133       14.229103   0.000000
  134       14.229171   0.000000
  135       14.307757   0.000000
  136       14.307792   0.000000
  137       14.536882   0.000000
  138       14.537040   0.000000
  139       14.585432   0.000000
  140       14.586059   0.000000
  141       14.941408   0.000000
  142       14.942723   0.000000
  143       15.024928   0.000000
  144       15.045232   0.000000
 
  0.0000000E+00  0.1000000E+00  0.0000000E+00  0.4901961E-02
    1      -17.148359   1.000000
    2      -17.148359   1.000000
    3      -15.588034   1.000000
    4      -15.588033   1.000000
    5      -10.938925   1.000000
    6      -10.938925   1.000000
    7       -8.561424   1.000000
    8       -8.561423   1.000000
    9       -7.208091   1.000000
   10       -7.208090   1.000000
   11       -6.505809   1.000000
   12       -6.505808   1.000000
   13       -5.962708   1.000000
   14       -5.962708   1.000000
   15       -4.733456   1.000000
   16       -4.733456   1.000000
   17       -4.534301   1.000000
   18       -4.534299   1.000000
   19       -3.490248   1.000000
   20       -3.490247   1.000000
   21       -1.345481   0.000000
   22       -1.345479   0.000000
   23       -0.302277   0.000000
   24       -0.302277   0.000000
   25       -0.010901   0.000000
   26       -0.010899   0.000000
   27        1.007242   0.000000
   28        1.007242   0.000000
   29        1.247573   0.000000
   30        1.247585   0.000000
   31        1.792372   0.000000
   32        1.792413   0.000000
   33        1.954774   0.000000
   34        1.954825   0.000000
   35        2.562506   0.000000
   36        2.562516   0.000000
   37        2.640637   0.000000
   38        2.640673   0.000000
   39        2.677561   0.000000
   40        2.677582   0.000000
   41        3.398861   0.000000
   42        3.398931   0.000000
   43        3.840274   0.000000
   44        3.840297   0.000000
   45        4.739166   0.000000
   46        4.739183   0.000000
   47        4.839080   0.000000
   48        4.839098   0.000000
   49        5.058890   0.000000
   50        5.058917   0.000000
   51        5.191896   0.000000
   52        5.191941   0.000000
   53        5.857584   0.000000
   54        5.857589   0.000000
   55        6.253303   0.000000
   56        6.253304   0.000000
   57        6.859580   0.000000
   58        6.859600   0.000000
   59        6.933895   0.000000
   60        6.933895   0.000000
   61        7.247089   0.000000
   62        7.247129   0.000000
   63        7.298369   0.000000
   64        7.298400   0.000000
   65        7.464434   0.000000
   66        7.464476   0.000000
   67        7.797196   0.000000
   68        7.797246   0.000000
   69        8.240979   0.000000
   70        8.241033   0.000000
   71        8.544403   0.000000
   72        8.544435   0.000000
   73        8.933514   0.000000
   74        8.933547   0.000000
   75        9.081369   0.000000
   76        9.081376   0.000000
   77        9.090389   0.000000
   78        9.090393   0.000000
   79        9.401174   0.000000
   80        9.401206   0.000000
   81        9.735840   0.000000
   82        9.735860   0.000000
   83        9.951039   0.000000
   84        9.951071   0.000000
   85       10.247182   0.000000
   86       10.247213   0.000000
   87       10.447882   0.000000
   88       10.447919   0.000000
   89       10.552361   0.000000
   90       10.552362   0.000000
   91       10.697325   0.000000
   92       10.697361   0.000000
   93       10.823507   0.000000
   94       10.823565   0.000000
   95       11.023188   0.000000
   96       11.023208   0.000000
   97       11.122721   0.000000
   98       11.122782   0.000000
   99       11.503678   0.000000
  100       11.503699   0.000000
  101       11.656722   0.000000
  102       11.656723   0.000000
  103       11.911405   0.000000
  104       11.911469   0.000000
  105       12.075173   0.000000
  106       12.075178   0.000000
  107       12.646685   0.000000
  108       12.646737   0.000000
  109       12.672678   0.000000
  110       12.672691   0.000000
  111       12.820246   0.000000
  112       12.820271   0.000000
  113       13.042130   0.000000
  114       13.042297   0.000000
  115       13.060784   0.000000
  116       13.060898   0.000000
  117       13.229878   0.000000
  118       13.229939   0.000000
  119       13.368507   0.000000
  120       13.368560   0.000000
  121       13.406016   0.000000
  122       13.406086   0.000000
  123       13.421930   0.000000
  124       13.421963   0.000000
  125       13.542153   0.000000
  126       13.542165   0.000000
  127       13.561105   0.000000
  128       13.561175   0.000000
  129       13.845277   0.000000
  130       13.845331   0.000000
  131       13.940126   0.000000
  132       13.940150   0.000000
  133       14.129704   0.000000
  134       14.129734   0.000000
  135       14.285874   0.000000
  136       14.285899   0.000000
  137       14.523994   0.000000
  138       14.524017   0.000000
  139       14.583900   0.000000
  140       14.584152   0.000000
  141       14.935020   0.000000
  142       14.935642   0.000000
  143       15.069554   0.000000
  144       15.078937   0.000000
 
  0.0000000E+00  0.9000000E-01  0.0000000E+00  0.4901961E-02
    1      -17.156204   1.000000
    2      -17.156204   1.000000
    3      -15.582943   1.000000
    4      -15.582943   1.000000
    5      -10.927782   1.000000
    6      -10.927781   1.000000
    7       -8.505935   1.000000
    8       -8.505934   1.000000
    9       -7.242239   1.000000
   10       -7.242239   1.000000
   11       -6.536601   1.000000
   12       -6.536601   1.000000
   13       -5.970404   1.000000
   14       -5.970404   1.000000
   15       -4.732880   1.000000
   16       -4.732880   1.000000
   17       -4.568514   1.000000
   18       -4.568512   1.000000
   19       -3.464002   1.000000
   20       -3.464000   1.000000
   21       -1.367213   0.000000
   22       -1.367211   0.000000
   23       -0.309671   0.000000
   24       -0.309671   0.000000
   25        0.025285   0.000000
   26        0.025287   0.000000
   27        1.026539   0.000000
   28        1.026539   0.000000
   29        1.236867   0.000000
   30        1.236879   0.000000
   31        1.778035   0.000000
   32        1.778077   0.000000
   33        1.942549   0.000000
   34        1.942599   0.000000
   35        2.573150   0.000000
   36        2.573162   0.000000
   37        2.627095   0.000000
   38        2.627148   0.000000
   39        2.711885   0.000000
   40        2.711894   0.000000
   41        3.398518   0.000000
   42        3.398587   0.000000
   43        3.828734   0.000000
   44        3.828758   0.000000
   45        4.724004   0.000000
   46        4.724017   0.000000
   47        4.865869   0.000000
   48        4.865886   0.000000
   49        5.051114   0.000000
   50        5.051143   0.000000
   51        5.191253   0.000000
   52        5.191296   0.000000
   53        5.844838   0.000000
   54        5.844841   0.000000
   55        6.230915   0.000000
   56        6.230915   0.000000
   57        6.876125   0.000000
   58        6.876138   0.000000
   59        6.888228   0.000000
   60        6.888238   0.000000
   61        7.293155   0.000000
   62        7.293254   0.000000
   63        7.301973   0.000000
   64        7.302026   0.000000
   65        7.516109   0.000000
   66        7.516140   0.000000
   67        7.917948   0.000000
   68        7.917999   0.000000
   69        8.332856   0.000000
   70        8.332910   0.000000
   71        8.544011   0.000000
   72        8.544036   0.000000
   73        8.961378   0.000000
   74        8.961408   0.000000
   75        9.036114   0.000000
   76        9.036115   0.000000
   77        9.091613   0.000000
   78        9.091631   0.000000
   79        9.407983   0.000000
   80        9.408022   0.000000
   81        9.764235   0.000000
   82        9.764253   0.000000
   83        9.950349   0.000000
   84        9.950380   0.000000
   85       10.223302   0.000000
   86       10.223333   0.000000
   87       10.354807   0.000000
   88       10.354853   0.000000
   89       10.567114   0.000000
   90       10.567114   0.000000
   91       10.632632   0.000000
   92       10.632669   0.000000
   93       10.770580   0.000000
   94       10.770646   0.000000
   95       11.000563   0.000000
   96       11.000587   0.000000
   97       11.141488   0.000000
   98       11.141535   0.000000
   99       11.516854   0.000000
  100       11.516874   0.000000
  101       11.676122   0.000000
  102       11.676123   0.000000
  103       11.813718   0.000000
  104       11.813783   0.000000
  105       11.996526   0.000000
  106       11.996533   0.000000
  107       12.650503   0.000000
  108       12.650513   0.000000
  109       12.654345   0.000000
  110       12.654406   0.000000
  111       12.806639   0.000000
  112       12.806664   0.000000
  113       13.030216   0.000000
  114       13.030278   0.000000
  115       13.110445   0.000000
  116       13.110462   0.000000
  117       13.214379   0.000000
  118       13.214438   0.000000
  119       13.354850   0.000000
  120       13.354902   0.000000
  121       13.390083   0.000000
  122       13.390154   0.000000
  123       13.448920   0.000000
  124       13.448947   0.000000
  125       13.520839   0.000000
  126       13.520892   0.000000
  127       13.563606   0.000000
  128       13.563640   0.000000
  129       13.778736   0.000000
  130       13.778778   0.000000
  131       13.944424   0.000000
  132       13.944464   0.000000
  133       14.093602   0.000000
  134       14.093657   0.000000
  135       14.265509   0.000000
  136       14.265525   0.000000
  137       14.512072   0.000000
  138       14.512139   0.000000
  139       14.583386   0.000000
  140       14.583620   0.000000
  141       14.937725   0.000000
  142       14.938583   0.000000
  143       15.106045   0.000000
  144       15.129312   0.000000
 
  0.0000000E+00  0.8000000E-01  0.0000000E+00  0.4901961E-02
    1      -17.163240   1.000000
    2      -17.163240   1.000000
    3      -15.578424   1.000000
    4      -15.578424   1.000000
    5      -10.917422   1.000000
    6      -10.917422   1.000000
    7       -8.452875   1.000000
    8       -8.452874   1.000000
    9       -7.275712   1.000000
   10       -7.275712   1.000000
   11       -6.564581   1.000000
   12       -6.564581   1.000000
   13       -5.977308   1.000000
   14       -5.977308   1.000000
   15       -4.733137   1.000000
   16       -4.733137   1.000000
   17       -4.599006   1.000000
   18       -4.599005   1.000000
   19       -3.439955   1.000000
   20       -3.439954   1.000000
   21       -1.387074   0.000000
   22       -1.387072   0.000000
   23       -0.316500   0.000000
   24       -0.316499   0.000000
   25        0.058290   0.000000
   26        0.058292   0.000000
   27        1.044295   0.000000
   28        1.044296   0.000000
   29        1.227190   0.000000
   30        1.227202   0.000000
   31        1.765188   0.000000
   32        1.765229   0.000000
   33        1.931513   0.000000
   34        1.931564   0.000000
   35        2.581264   0.000000
   36        2.581281   0.000000
   37        2.614875   0.000000
   38        2.614939   0.000000
   39        2.744784   0.000000
   40        2.744789   0.000000
   41        3.399191   0.000000
   42        3.399259   0.000000
   43        3.818206   0.000000
   44        3.818229   0.000000
   45        4.708919   0.000000
   46        4.708930   0.000000
   47        4.889283   0.000000
   48        4.889301   0.000000
   49        5.043235   0.000000
   50        5.043266   0.000000
   51        5.193227   0.000000
   52        5.193267   0.000000
   53        5.834973   0.000000
   54        5.834977   0.000000
   55        6.210296   0.000000
   56        6.210296   0.000000
   57        6.837254   0.000000
   58        6.837254   0.000000
   59        6.891432   0.000000
   60        6.891459   0.000000
   61        7.288804   0.000000
   62        7.288853   0.000000
   63        7.357369   0.000000
   64        7.357380   0.000000
   65        7.573106   0.000000
   66        7.573129   0.000000
   67        8.038370   0.000000
   68        8.038421   0.000000
   69        8.421444   0.000000
   70        8.421494   0.000000
   71        8.531521   0.000000
   72        8.531547   0.000000
   73        8.986912   0.000000
   74        8.986918   0.000000
   75        8.998082   0.000000
   76        8.998100   0.000000
   77        9.092778   0.000000
   78        9.092808   0.000000
   79        9.424284   0.000000
   80        9.424329   0.000000
   81        9.800959   0.000000
   82        9.800976   0.000000
   83        9.947159   0.000000
   84        9.947190   0.000000
   85       10.199179   0.000000
   86       10.199216   0.000000
   87       10.245174   0.000000
   88       10.245220   0.000000
   89       10.548397   0.000000
   90       10.548432   0.000000
   91       10.579694   0.000000
   92       10.579694   0.000000
   93       10.685715   0.000000
   94       10.685782   0.000000
   95       11.022036   0.000000
   96       11.022068   0.000000
   97       11.181798   0.000000
   98       11.181835   0.000000
   99       11.531444   0.000000
  100       11.531463   0.000000
  101       11.696110   0.000000
  102       11.696110   0.000000
  103       11.717606   0.000000
  104       11.717671   0.000000
  105       11.938279   0.000000
  106       11.938290   0.000000
  107       12.611059   0.000000
  108       12.611077   0.000000
  109       12.648148   0.000000
  110       12.648192   0.000000
  111       12.794444   0.000000
  112       12.794468   0.000000
  113       13.024006   0.000000
  114       13.024055   0.000000
  115       13.143643   0.000000
  116       13.143672   0.000000
  117       13.200602   0.000000
  118       13.200657   0.000000
  119       13.342620   0.000000
  120       13.342673   0.000000
  121       13.375518   0.000000
  122       13.375588   0.000000
  123       13.470243   0.000000
  124       13.470286   0.000000
  125       13.510632   0.000000
  126       13.510667   0.000000
  127       13.582375   0.000000
  128       13.582404   0.000000
  129       13.722574   0.000000
  130       13.722615   0.000000
  131       13.877377   0.000000
  132       13.877420   0.000000
  133       14.144109   0.000000
  134       14.144118   0.000000
  135       14.246750   0.000000
  136       14.246769   0.000000
  137       14.501347   0.000000
  138       14.501367   0.000000
  139       14.584207   0.000000
  140       14.584404   0.000000
  141       14.949757   0.000000
  142       14.951739   0.000000
  143       15.123898   0.000000
  144       15.161058   0.000000
 
  0.0000000E+00  0.7000000E-01  0.0000000E+00  0.4901961E-02
    1      -17.169457   1.000000
    2      -17.169457   1.000000
    3      -15.574465   1.000000
    4      -15.574465   1.000000
    5      -10.907967   1.000000
    6      -10.907967   1.000000
    7       -8.402774   1.000000
    8       -8.402773   1.000000
    9       -7.308131   1.000000
   10       -7.308130   1.000000
   11       -6.589611   1.000000
   12       -6.589611   1.000000
   13       -5.983411   1.000000
   14       -5.983411   1.000000
   15       -4.734474   1.000000
   16       -4.734473   1.000000
   17       -4.625327   1.000000
   18       -4.625326   1.000000
   19       -3.418271   1.000000
   20       -3.418270   1.000000
   21       -1.404943   0.000000
   22       -1.404942   0.000000
   23       -0.322686   0.000000
   24       -0.322685   0.000000
   25        0.087922   0.000000
   26        0.087923   0.000000
   27        1.060340   0.000000
   28        1.060340   0.000000
   29        1.218598   0.000000
   30        1.218610   0.000000
   31        1.753837   0.000000
   32        1.753878   0.000000
   33        1.921705   0.000000
   34        1.921756   0.000000
   35        2.587302   0.000000
   36        2.587335   0.000000
   37        2.604429   0.000000
   38        2.604514   0.000000
   39        2.775138   0.000000
   40        2.775141   0.000000
   41        3.400653   0.000000
   42        3.400720   0.000000
   43        3.808767   0.000000
   44        3.808791   0.000000
   45        4.694292   0.000000
   46        4.694303   0.000000
   47        4.908870   0.000000
   48        4.908889   0.000000
   49        5.035387   0.000000
   50        5.035420   0.000000
   51        5.197738   0.000000
   52        5.197774   0.000000
   53        5.827871   0.000000
   54        5.827874   0.000000
   55        6.191642   0.000000
   56        6.191643   0.000000
   57        6.796967   0.000000
   58        6.796967   0.000000
   59        6.893725   0.000000
   60        6.893753   0.000000
   61        7.279414   0.000000
   62        7.279462   0.000000
   63        7.419111   0.000000
   64        7.419125   0.000000
   65        7.629645   0.000000
   66        7.629663   0.000000
   67        8.156043   0.000000
   68        8.156092   0.000000
   69        8.502292   0.000000
   70        8.502361   0.000000
   71        8.518071   0.000000
   72        8.518190   0.000000
   73        8.947034   0.000000
   74        8.947035   0.000000
   75        9.029298   0.000000
   76        9.029321   0.000000
   77        9.093734   0.000000
   78        9.093786   0.000000
   79        9.448293   0.000000
   80        9.448343   0.000000
   81        9.840129   0.000000
   82        9.840146   0.000000
   83        9.935283   0.000000
   84        9.935315   0.000000
   85       10.139996   0.000000
   86       10.140058   0.000000
   87       10.175274   0.000000
   88       10.175297   0.000000
   89       10.457342   0.000000
   90       10.457373   0.000000
   91       10.587821   0.000000
   92       10.587836   0.000000
   93       10.595967   0.000000
   94       10.596016   0.000000
   95       11.056830   0.000000
   96       11.056869   0.000000
   97       11.216606   0.000000
   98       11.216634   0.000000
   99       11.542672   0.000000
  100       11.542691   0.000000
  101       11.633258   0.000000
  102       11.633320   0.000000
  103       11.716084   0.000000
  104       11.716085   0.000000
  105       11.909811   0.000000
  106       11.909829   0.000000
  107       12.560911   0.000000
  108       12.560933   0.000000
  109       12.628771   0.000000
  110       12.628809   0.000000
  111       12.783679   0.000000
  112       12.783704   0.000000
  113       13.022318   0.000000
  114       13.022362   0.000000
  115       13.148039   0.000000
  116       13.148081   0.000000
  117       13.188464   0.000000
  118       13.188514   0.000000
  119       13.331826   0.000000
  120       13.331879   0.000000
  121       13.362447   0.000000
  122       13.362517   0.000000
  123       13.438225   0.000000
  124       13.438277   0.000000
  125       13.576041   0.000000
  126       13.576171   0.000000
  127       13.579067   0.000000
  128       13.579243   0.000000
  129       13.702514   0.000000
  130       13.702558   0.000000
  131       13.806056   0.000000
  132       13.806094   0.000000
  133       14.212686   0.000000
  134       14.212832   0.000000
  135       14.229775   0.000000
  136       14.229787   0.000000
  137       14.491661   0.000000
  138       14.491749   0.000000
  139       14.586635   0.000000
  140       14.586748   0.000000
  141       14.970396   0.000000
  142       14.973517   0.000000
  143       15.130305   0.000000
  144       15.185387   0.000000
 
  0.0000000E+00  0.6000000E-01  0.0000000E+00  0.4901961E-02
    1      -17.174854   1.000000
    2      -17.174854   1.000000
    3      -15.571056   1.000000
    4      -15.571055   1.000000
    5      -10.899528   1.000000
    6      -10.899528   1.000000
    7       -8.356282   1.000000
    8       -8.356282   1.000000
    9       -7.338986   1.000000
   10       -7.338986   1.000000
   11       -6.611569   1.000000
   12       -6.611569   1.000000
   13       -5.988710   1.000000
   14       -5.988710   1.000000
   15       -4.737192   1.000000
   16       -4.737191   1.000000
   17       -4.646980   1.000000
   18       -4.646979   1.000000
   19       -3.399109   1.000000
   20       -3.399108   1.000000
   21       -1.420711   0.000000
   22       -1.420710   0.000000
   23       -0.328169   0.000000
   24       -0.328168   0.000000
   25        0.113995   0.000000
   26        0.113997   0.000000
   27        1.074516   0.000000
   28        1.074517   0.000000
   29        1.211137   0.000000
   30        1.211149   0.000000
   31        1.743987   0.000000
   32        1.744028   0.000000
   33        1.913155   0.000000
   34        1.913206   0.000000
   35        2.589476   0.000000
   36        2.589530   0.000000
   37        2.597976   0.000000
   38        2.598086   0.000000
   39        2.802330   0.000000
   40        2.802333   0.000000
   41        3.402659   0.000000
   42        3.402725   0.000000
   43        3.800476   0.000000
   44        3.800500   0.000000
   45        4.680480   0.000000
   46        4.680488   0.000000
   47        4.924503   0.000000
   48        4.924523   0.000000
   49        5.027799   0.000000
   50        5.027833   0.000000
   51        5.204366   0.000000
   52        5.204399   0.000000
   53        5.823193   0.000000
   54        5.823196   0.000000
   55        6.175086   0.000000
   56        6.175087   0.000000
   57        6.761523   0.000000
   58        6.761524   0.000000
   59        6.892104   0.000000
   60        6.892134   0.000000
   61        7.270030   0.000000
   62        7.270079   0.000000
   63        7.479967   0.000000
   64        7.479981   0.000000
   65        7.682952   0.000000
   66        7.682966   0.000000
   67        8.264252   0.000000
   68        8.264296   0.000000
   69        8.509495   0.000000
   70        8.509508   0.000000
   71        8.576639   0.000000
   72        8.576716   0.000000
   73        8.910758   0.000000
   74        8.910758   0.000000
   75        9.057758   0.000000
   76        9.057801   0.000000
   77        9.101859   0.000000
   78        9.101939   0.000000
   79        9.475288   0.000000
   80        9.475340   0.000000
   81        9.873671   0.000000
   82        9.873691   0.000000
   83        9.893874   0.000000
   84        9.893918   0.000000
   85       10.064842   0.000000
   86       10.064888   0.000000
   87       10.150368   0.000000
   88       10.150402   0.000000
   89       10.373675   0.000000
   90       10.373706   0.000000
   91       10.512173   0.000000
   92       10.512228   0.000000
   93       10.597680   0.000000
   94       10.597680   0.000000
   95       11.076938   0.000000
   96       11.076986   0.000000
   97       11.226987   0.000000
   98       11.227008   0.000000
   99       11.555837   0.000000
  100       11.555853   0.000000
  101       11.575742   0.000000
  102       11.575809   0.000000
  103       11.735119   0.000000
  104       11.735120   0.000000
  105       11.914239   0.000000
  106       11.914267   0.000000
  107       12.507669   0.000000
  108       12.507693   0.000000
  109       12.595769   0.000000
  110       12.595803   0.000000
  111       12.774342   0.000000
  112       12.774366   0.000000
  113       13.022912   0.000000
  114       13.022956   0.000000
  115       13.121395   0.000000
  116       13.121441   0.000000
  117       13.177925   0.000000
  118       13.177973   0.000000
  119       13.322471   0.000000
  120       13.322524   0.000000
  121       13.350933   0.000000
  122       13.351003   0.000000
  123       13.409333   0.000000
  124       13.409383   0.000000
  125       13.540497   0.000000
  126       13.540518   0.000000
  127       13.653848   0.000000
  128       13.653895   0.000000
  129       13.726573   0.000000
  130       13.726615   0.000000
  131       13.759705   0.000000
  132       13.759740   0.000000
  133       14.214536   0.000000
  134       14.214562   0.000000
  135       14.277573   0.000000
  136       14.277720   0.000000
  137       14.483250   0.000000
  138       14.483343   0.000000
  139       14.591141   0.000000
  140       14.591342   0.000000
  141       14.994480   0.000000
  142       15.010981   0.000000
  143       15.100508   0.000000
  144       15.159332   0.000000
 
  0.0000000E+00  0.5000000E-01  0.0000000E+00  0.4901961E-02
    1      -17.179428   1.000000
    2      -17.179428   1.000000
    3      -15.568187   1.000000
    4      -15.568187   1.000000
    5      -10.892205   1.000000
    6      -10.892205   1.000000
    7       -8.314191   1.000000
    8       -8.314191   1.000000
    9       -7.367617   1.000000
   10       -7.367616   1.000000
   11       -6.630346   1.000000
   12       -6.630346   1.000000
   13       -5.993202   1.000000
   14       -5.993202   1.000000
   15       -4.741494   1.000000
   16       -4.741493   1.000000
   17       -4.663600   1.000000
   18       -4.663600   1.000000
   19       -3.382615   1.000000
   20       -3.382614   1.000000
   21       -1.434267   0.000000
   22       -1.434266   0.000000
   23       -0.332897   0.000000
   24       -0.332897   0.000000
   25        0.136348   0.000000
   26        0.136349   0.000000
   27        1.086680   0.000000
   28        1.086681   0.000000
   29        1.204844   0.000000
   30        1.204856   0.000000
   31        1.735644   0.000000
   32        1.735686   0.000000
   33        1.905886   0.000000
   34        1.905936   0.000000
   35        2.584300   0.000000
   36        2.584308   0.000000
   37        2.599326   0.000000
   38        2.599385   0.000000
   39        2.825938   0.000000
   40        2.825941   0.000000
   41        3.404949   0.000000
   42        3.405015   0.000000
   43        3.793383   0.000000
   44        3.793407   0.000000
   45        4.667870   0.000000
   46        4.667878   0.000000
   47        4.936399   0.000000
   48        4.936421   0.000000
   49        5.020755   0.000000
   50        5.020790   0.000000
   51        5.212373   0.000000
   52        5.212402   0.000000
   53        5.820472   0.000000
   54        5.820474   0.000000
   55        6.160773   0.000000
   56        6.160774   0.000000
   57        6.731205   0.000000
   58        6.731205   0.000000
   59        6.888476   0.000000
   60        6.888507   0.000000
   61        7.261506   0.000000
   62        7.261556   0.000000
   63        7.536647   0.000000
   64        7.536660   0.000000
   65        7.731278   0.000000
   66        7.731289   0.000000
   67        8.342823   0.000000
   68        8.342853   0.000000
   69        8.534640   0.000000
   70        8.534661   0.000000
   71        8.633007   0.000000
   72        8.633068   0.000000
   73        8.879840   0.000000
   74        8.879840   0.000000
   75        9.082112   0.000000
   76        9.082159   0.000000
   77        9.124302   0.000000
   78        9.124392   0.000000
   79        9.497605   0.000000
   80        9.497653   0.000000
   81        9.810467   0.000000
   82        9.810519   0.000000
   83        9.890732   0.000000
   84        9.890759   0.000000
   85       10.030427   0.000000
   86       10.030459   0.000000
   87       10.123927   0.000000
   88       10.123968   0.000000
   89       10.311857   0.000000
   90       10.311894   0.000000
   91       10.453323   0.000000
   92       10.453365   0.000000
   93       10.603878   0.000000
   94       10.603879   0.000000
   95       11.061464   0.000000
   96       11.061521   0.000000
   97       11.205468   0.000000
   98       11.205485   0.000000
   99       11.559702   0.000000
  100       11.559727   0.000000
  101       11.580265   0.000000
  102       11.580300   0.000000
  103       11.752603   0.000000
  104       11.752604   0.000000
  105       11.944213   0.000000
  106       11.944250   0.000000
  107       12.456697   0.000000
  108       12.456722   0.000000
  109       12.551502   0.000000
  110       12.551534   0.000000
  111       12.766430   0.000000
  112       12.766455   0.000000
  113       13.023879   0.000000
  114       13.023926   0.000000
  115       13.068047   0.000000
  116       13.068092   0.000000
  117       13.169011   0.000000
  118       13.169058   0.000000
  119       13.314550   0.000000
  120       13.314602   0.000000
  121       13.341039   0.000000
  122       13.341109   0.000000
  123       13.389633   0.000000
  124       13.389681   0.000000
  125       13.499222   0.000000
  126       13.499244   0.000000
  127       13.664896   0.000000
  128       13.664954   0.000000
  129       13.768233   0.000000
  130       13.768259   0.000000
  131       13.801482   0.000000
  132       13.801527   0.000000
  133       14.201397   0.000000
  134       14.201416   0.000000
  135       14.332153   0.000000
  136       14.332225   0.000000
  137       14.476129   0.000000
  138       14.476236   0.000000
  139       14.598522   0.000000
  140       14.599085   0.000000
  141       14.991583   0.000000
  142       15.001277   0.000000
  143       15.059136   0.000000
  144       15.100083   0.000000
 
  0.0000000E+00  0.4000000E-01  0.0000000E+00  0.4901961E-02
    1      -17.183174   1.000000
    2      -17.183174   1.000000
    3      -15.565849   1.000000
    4      -15.565849   1.000000
    5      -10.886086   1.000000
    6      -10.886086   1.000000
    7       -8.277440   1.000000
    8       -8.277440   1.000000
    9       -7.393193   1.000000
   10       -7.393193   1.000000
   11       -6.645842   1.000000
   12       -6.645842   1.000000
   13       -5.996880   1.000000
   14       -5.996879   1.000000
   15       -4.747138   1.000000
   16       -4.747138   1.000000
   17       -4.675281   1.000000
   18       -4.675280   1.000000
   19       -3.368924   1.000000
   20       -3.368923   1.000000
   21       -1.445510   0.000000
   22       -1.445509   0.000000
   23       -0.336823   0.000000
   24       -0.336823   0.000000
   25        0.154840   0.000000
   26        0.154841   0.000000
   27        1.096722   0.000000
   28        1.096722   0.000000
   29        1.199740   0.000000
   30        1.199752   0.000000
   31        1.728813   0.000000
   32        1.728854   0.000000
   33        1.899916   0.000000
   34        1.899966   0.000000
   35        2.578172   0.000000
   36        2.578195   0.000000
   37        2.602118   0.000000
   38        2.602158   0.000000
   39        2.845652   0.000000
   40        2.845654   0.000000
   41        3.407267   0.000000
   42        3.407332   0.000000
   43        3.787529   0.000000
   44        3.787553   0.000000
   45        4.656860   0.000000
   46        4.656867   0.000000
   47        4.945026   0.000000
   48        4.945050   0.000000
   49        5.014549   0.000000
   50        5.014585   0.000000
   51        5.220796   0.000000
   52        5.220822   0.000000
   53        5.819185   0.000000
   54        5.819188   0.000000
   55        6.148850   0.000000
   56        6.148850   0.000000
   57        6.706200   0.000000
   58        6.706200   0.000000
   59        6.884158   0.000000
   60        6.884189   0.000000
   61        7.254236   0.000000
   62        7.254286   0.000000
   63        7.586564   0.000000
   64        7.586576   0.000000
   65        7.773225   0.000000
   66        7.773234   0.000000
   67        8.371691   0.000000
   68        8.371705   0.000000
   69        8.611943   0.000000
   70        8.611981   0.000000
   71        8.670892   0.000000
   72        8.670941   0.000000
   73        8.854458   0.000000
   74        8.854458   0.000000
   75        9.103234   0.000000
   76        9.103258   0.000000
   77        9.165699   0.000000
   78        9.165773   0.000000
   79        9.503006   0.000000
   80        9.503047   0.000000
   81        9.716397   0.000000
   82        9.716452   0.000000
   83        9.878182   0.000000
   84        9.878219   0.000000
   85       10.005037   0.000000
   86       10.005066   0.000000
   87       10.099577   0.000000
   88       10.099622   0.000000
   89       10.286291   0.000000
   90       10.286337   0.000000
   91       10.426583   0.000000
   92       10.426610   0.000000
   93       10.608656   0.000000
   94       10.608656   0.000000
   95       11.009010   0.000000
   96       11.009075   0.000000
   97       11.160268   0.000000
   98       11.160284   0.000000
   99       11.583895   0.000000
  100       11.583927   0.000000
  101       11.614837   0.000000
  102       11.614863   0.000000
  103       11.767905   0.000000
  104       11.767906   0.000000
  105       11.987100   0.000000
  106       11.987145   0.000000
  107       12.413736   0.000000
  108       12.413764   0.000000
  109       12.499579   0.000000
  110       12.499609   0.000000
  111       12.759943   0.000000
  112       12.759968   0.000000
  113       12.996783   0.000000
  114       12.996844   0.000000
  115       13.024372   0.000000
  116       13.024402   0.000000
  117       13.161769   0.000000
  118       13.161814   0.000000
  119       13.308067   0.000000
  120       13.308119   0.000000
  121       13.332826   0.000000
  122       13.332895   0.000000
  123       13.377840   0.000000
  124       13.377885   0.000000
  125       13.463904   0.000000
  126       13.463928   0.000000
  127       13.637707   0.000000
  128       13.637765   0.000000
  129       13.813852   0.000000
  130       13.813886   0.000000
  131       13.897932   0.000000
  132       13.897969   0.000000
  133       14.190406   0.000000
  134       14.190434   0.000000
  135       14.375202   0.000000
  136       14.375328   0.000000
  137       14.470265   0.000000
  138       14.470299   0.000000
  139       14.609835   0.000000
  140       14.610050   0.000000
  141       14.936586   0.000000
  142       14.938089   0.000000
  143       15.008766   0.000000
  144       15.014246   0.000000
 
  0.0000000E+00  0.3000000E-01  0.0000000E+00  0.4901961E-02
    1      -17.186092   1.000000
    2      -17.186092   1.000000
    3      -15.564040   1.000000
    4      -15.564040   1.000000
    5      -10.881248   1.000000
    6      -10.881247   1.000000
    7       -8.247104   1.000000
    8       -8.247103   1.000000
    9       -7.414738   1.000000
   10       -7.414738   1.000000
   11       -6.657983   1.000000
   12       -6.657983   1.000000
   13       -5.999744   1.000000
   14       -5.999744   1.000000
   15       -4.753244   1.000000
   16       -4.753244   1.000000
   17       -4.682781   1.000000
   18       -4.682780   1.000000
   19       -3.358149   1.000000
   20       -3.358148   1.000000
   21       -1.454357   0.000000
   22       -1.454356   0.000000
   23       -0.339917   0.000000
   24       -0.339917   0.000000
   25        0.169346   0.000000
   26        0.169347   0.000000
   27        1.104558   0.000000
   28        1.104558   0.000000
   29        1.195827   0.000000
   30        1.195839   0.000000
   31        1.723495   0.000000
   32        1.723537   0.000000
   33        1.895259   0.000000
   34        1.895309   0.000000
   35        2.573171   0.000000
   36        2.573202   0.000000
   37        2.604425   0.000000
   38        2.604458   0.000000
   39        2.861227   0.000000
   40        2.861229   0.000000
   41        3.409368   0.000000
   42        3.409432   0.000000
   43        3.782940   0.000000
   44        3.782964   0.000000
   45        4.647810   0.000000
   46        4.647815   0.000000
   47        4.950956   0.000000
   48        4.950981   0.000000
   49        5.009452   0.000000
   50        5.009487   0.000000
   51        5.228610   0.000000
   52        5.228634   0.000000
   53        5.818817   0.000000
   54        5.818819   0.000000
   55        6.139427   0.000000
   56        6.139428   0.000000
   57        6.686617   0.000000
   58        6.686617   0.000000
   59        6.880032   0.000000
   60        6.880063   0.000000
   61        7.248431   0.000000
   62        7.248482   0.000000
   63        7.627618   0.000000
   64        7.627628   0.000000
   65        7.807530   0.000000
   66        7.807539   0.000000
   67        8.373592   0.000000
   68        8.373602   0.000000
   69        8.690860   0.000000
   70        8.690899   0.000000
   71        8.719547   0.000000
   72        8.719591   0.000000
   73        8.834622   0.000000
   74        8.834623   0.000000
   75        9.120689   0.000000
   76        9.120696   0.000000
   77        9.225116   0.000000
   78        9.225182   0.000000
   79        9.469241   0.000000
   80        9.469280   0.000000
   81        9.648272   0.000000
   82        9.648321   0.000000
   83        9.831579   0.000000
   84        9.831628   0.000000
   85        9.972670   0.000000
   86        9.972702   0.000000
   87       10.083587   0.000000
   88       10.083636   0.000000
   89       10.299326   0.000000
   90       10.299377   0.000000
   91       10.429316   0.000000
   92       10.429331   0.000000
   93       10.612171   0.000000
   94       10.612172   0.000000
   95       10.935865   0.000000
   96       10.935934   0.000000
   97       11.105463   0.000000
   98       11.105482   0.000000
   99       11.630075   0.000000
  100       11.630113   0.000000
  101       11.652454   0.000000
  102       11.652474   0.000000
  103       11.780451   0.000000
  104       11.780451   0.000000
  105       12.029362   0.000000
  106       12.029414   0.000000
  107       12.386008   0.000000
  108       12.386040   0.000000
  109       12.444972   0.000000
  110       12.445000   0.000000
  111       12.754864   0.000000
  112       12.754888   0.000000
  113       12.918124   0.000000
  114       12.918173   0.000000
  115       13.024016   0.000000
  116       13.024054   0.000000
  117       13.156205   0.000000
  118       13.156248   0.000000
  119       13.303022   0.000000
  120       13.303075   0.000000
  121       13.326356   0.000000
  122       13.326425   0.000000
  123       13.371133   0.000000
  124       13.371177   0.000000
  125       13.436884   0.000000
  126       13.436910   0.000000
  127       13.614429   0.000000
  128       13.614488   0.000000
  129       13.856893   0.000000
  130       13.856930   0.000000
  131       13.999422   0.000000
  132       13.999447   0.000000
  133       14.181707   0.000000
  134       14.181729   0.000000
  135       14.408613   0.000000
  136       14.408624   0.000000
  137       14.465642   0.000000
  138       14.465716   0.000000
  139       14.625561   0.000000
  140       14.625647   0.000000
  141       14.845385   0.000000
  142       14.848631   0.000000
  143       14.949284   0.000000
  144       14.953582   0.000000
 
  0.0000000E+00  0.2000000E-01  0.0000000E+00  0.4901961E-02
    1      -17.188175   1.000000
    2      -17.188175   1.000000
    3      -15.562749   1.000000
    4      -15.562749   1.000000
    5      -10.877747   1.000000
    6      -10.877747   1.000000
    7       -8.224316   1.000000
    8       -8.224316   1.000000
    9       -7.431189   1.000000
   10       -7.431189   1.000000
   11       -6.666699   1.000000
   12       -6.666699   1.000000
   13       -6.001792   1.000000
   14       -6.001792   1.000000
   15       -4.758610   1.000000
   16       -4.758610   1.000000
   17       -4.687202   1.000000
   18       -4.687202   1.000000
   19       -3.350381   1.000000
   20       -3.350381   1.000000
   21       -1.460728   0.000000
   22       -1.460727   0.000000
   23       -0.342144   0.000000
   24       -0.342144   0.000000
   25        0.179780   0.000000
   26        0.179780   0.000000
   27        1.110152   0.000000
   28        1.110152   0.000000
   29        1.193083   0.000000
   30        1.193095   0.000000
   31        1.719696   0.000000
   32        1.719738   0.000000
   33        1.891925   0.000000
   34        1.891976   0.000000
   35        2.569549   0.000000
   36        2.569585   0.000000
   37        2.606077   0.000000
   38        2.606106   0.000000
   39        2.872483   0.000000
   40        2.872485   0.000000
   41        3.411040   0.000000
   42        3.411104   0.000000
   43        3.779651   0.000000
   44        3.779675   0.000000
   45        4.641085   0.000000
   46        4.641090   0.000000
   47        4.954746   0.000000
   48        4.954774   0.000000
   49        5.005673   0.000000
   50        5.005705   0.000000
   51        5.234916   0.000000
   52        5.234938   0.000000
   53        5.818920   0.000000
   54        5.818922   0.000000
   55        6.132630   0.000000
   56        6.132630   0.000000
   57        6.672564   0.000000
   58        6.672564   0.000000
   59        6.876703   0.000000
   60        6.876734   0.000000
   61        7.244214   0.000000
   62        7.244265   0.000000
   63        7.658155   0.000000
   64        7.658163   0.000000
   65        7.833045   0.000000
   66        7.833053   0.000000
   67        8.369354   0.000000
   68        8.369362   0.000000
   69        8.700333   0.000000
   70        8.700364   0.000000
   71        8.820272   0.000000
   72        8.820273   0.000000
   73        8.832824   0.000000
   74        8.832869   0.000000
   75        9.132143   0.000000
   76        9.132156   0.000000
   77        9.295001   0.000000
   78        9.295067   0.000000
   79        9.390888   0.000000
   80        9.390932   0.000000
   81        9.620331   0.000000
   82        9.620365   0.000000
   83        9.763642   0.000000
   84        9.763697   0.000000
   85        9.940790   0.000000
   86        9.940831   0.000000
   87       10.075374   0.000000
   88       10.075423   0.000000
   89       10.336183   0.000000
   90       10.336238   0.000000
   91       10.448562   0.000000
   92       10.448570   0.000000
   93       10.614610   0.000000
   94       10.614611   0.000000
   95       10.859861   0.000000
   96       10.859933   0.000000
   97       11.053536   0.000000
   98       11.053558   0.000000
   99       11.679687   0.000000
  100       11.679739   0.000000
  101       11.686232   0.000000
  102       11.686249   0.000000
  103       11.789808   0.000000
  104       11.789809   0.000000
  105       12.058732   0.000000
  106       12.058787   0.000000
  107       12.380042   0.000000
  108       12.380088   0.000000
  109       12.394646   0.000000
  110       12.394668   0.000000
  111       12.751140   0.000000
  112       12.751164   0.000000
  113       12.842613   0.000000
  114       12.842656   0.000000
  115       13.023306   0.000000
  116       13.023346   0.000000
  117       13.152290   0.000000
  118       13.152332   0.000000
  119       13.299420   0.000000
  120       13.299472   0.000000
  121       13.321688   0.000000
  122       13.321757   0.000000
  123       13.367435   0.000000
  124       13.367478   0.000000
  125       13.418212   0.000000
  126       13.418240   0.000000
  127       13.598286   0.000000
  128       13.598347   0.000000
  129       13.892224   0.000000
  130       13.892264   0.000000
  131       14.093523   0.000000
  132       14.093560   0.000000
  133       14.175443   0.000000
  134       14.175464   0.000000
  135       14.436941   0.000000
  136       14.437025   0.000000
  137       14.462400   0.000000
  138       14.462492   0.000000
  139       14.645815   0.000000
  140       14.646172   0.000000
  141       14.744884   0.000000
  142       14.745699   0.000000
  143       14.893096   0.000000
  144       14.893388   0.000000
 
  0.0000000E+00  0.1000000E-01  0.0000000E+00  0.4901961E-02
    1      -17.189425   1.000000
    2      -17.189425   1.000000
    3      -15.561974   1.000000
    4      -15.561974   1.000000
    5      -10.875627   1.000000
    6      -10.875627   1.000000
    7       -8.210128   1.000000
    8       -8.210128   1.000000
    9       -7.441550   1.000000
   10       -7.441549   1.000000
   11       -6.671947   1.000000
   12       -6.671947   1.000000
   13       -6.003021   1.000000
   14       -6.003021   1.000000
   15       -4.762227   1.000000
   16       -4.762226   1.000000
   17       -4.689484   1.000000
   18       -4.689484   1.000000
   19       -3.345691   1.000000
   20       -3.345690   1.000000
   21       -1.464572   0.000000
   22       -1.464572   0.000000
   23       -0.343486   0.000000
   24       -0.343486   0.000000
   25        0.186072   0.000000
   26        0.186072   0.000000
   27        1.113500   0.000000
   28        1.113500   0.000000
   29        1.191466   0.000000
   30        1.191478   0.000000
   31        1.717417   0.000000
   32        1.717458   0.000000
   33        1.889923   0.000000
   34        1.889974   0.000000
   35        2.567363   0.000000
   36        2.567402   0.000000
   37        2.607063   0.000000
   38        2.607089   0.000000
   39        2.879290   0.000000
   40        2.879292   0.000000
   41        3.412114   0.000000
   42        3.412178   0.000000
   43        3.777672   0.000000
   44        3.777696   0.000000
   45        4.636946   0.000000
   46        4.636951   0.000000
   47        4.956831   0.000000
   48        4.956863   0.000000
   49        5.003355   0.000000
   50        5.003383   0.000000
   51        5.239000   0.000000
   52        5.239020   0.000000
   53        5.819137   0.000000
   54        5.819139   0.000000
   55        6.128517   0.000000
   56        6.128517   0.000000
   57        6.664116   0.000000
   58        6.664116   0.000000
   59        6.874557   0.000000
   60        6.874588   0.000000
   61        7.241658   0.000000
   62        7.241709   0.000000
   63        7.676965   0.000000
   64        7.676971   0.000000
   65        7.848801   0.000000
   66        7.848809   0.000000
   67        8.365549   0.000000
   68        8.365556   0.000000
   69        8.703404   0.000000
   70        8.703429   0.000000
   71        8.811860   0.000000
   72        8.811860   0.000000
   73        8.938897   0.000000
   74        8.938939   0.000000
   75        9.130320   0.000000
   76        9.130349   0.000000
   77        9.307112   0.000000
   78        9.307153   0.000000
   79        9.360753   0.000000
   80        9.360825   0.000000
   81        9.610692   0.000000
   82        9.610717   0.000000
   83        9.696555   0.000000
   84        9.696613   0.000000
   85        9.918823   0.000000
   86        9.918875   0.000000
   87       10.071494   0.000000
   88       10.071540   0.000000
   89       10.375739   0.000000
   90       10.375797   0.000000
   91       10.468905   0.000000
   92       10.468911   0.000000
   93       10.616054   0.000000
   94       10.616054   0.000000
   95       10.798531   0.000000
   96       10.798606   0.000000
   97       11.015605   0.000000
   98       11.015630   0.000000
   99       11.709908   0.000000
  100       11.709931   0.000000
  101       11.717900   0.000000
  102       11.717933   0.000000
  103       11.795603   0.000000
  104       11.795604   0.000000
  105       12.071302   0.000000
  106       12.071359   0.000000
  107       12.357354   0.000000
  108       12.357384   0.000000
  109       12.391880   0.000000
  110       12.391919   0.000000
  111       12.748475   0.000000
  112       12.748498   0.000000
  113       12.784239   0.000000
  114       12.784277   0.000000
  115       13.022657   0.000000
  116       13.022698   0.000000
  117       13.149970   0.000000
  118       13.150011   0.000000
  119       13.297256   0.000000
  120       13.297309   0.000000
  121       13.318867   0.000000
  122       13.318935   0.000000
  123       13.365585   0.000000
  124       13.365626   0.000000
  125       13.407344   0.000000
  126       13.407374   0.000000
  127       13.588908   0.000000
  128       13.588968   0.000000
  129       13.915501   0.000000
  130       13.915542   0.000000
  131       14.164755   0.000000
  132       14.164778   0.000000
  133       14.172534   0.000000
  134       14.172539   0.000000
  135       14.460000   0.000000
  136       14.460209   0.000000
  137       14.466949   0.000000
  138       14.467433   0.000000
  139       14.653493   0.000000
  140       14.653979   0.000000
  141       14.668086   0.000000
  142       14.668208   0.000000
  143       14.847818   0.000000
  144       14.850579   0.000000
 
  0.0000000E+00 -0.1040834E-16  0.0000000E+00  0.4901961E-02
    1      -17.189841   1.000000
    2      -17.189841   1.000000
    3      -15.561716   1.000000
    4      -15.561716   1.000000
    5      -10.874918   1.000000
    6      -10.874918   1.000000
    7       -8.205306   1.000000
    8       -8.205306   1.000000
    9       -7.445094   1.000000
   10       -7.445094   1.000000
   11       -6.673700   1.000000
   12       -6.673700   1.000000
   13       -6.003431   1.000000
   14       -6.003431   1.000000
   15       -4.763496   1.000000
   16       -4.763496   1.000000
   17       -4.690186   1.000000
   18       -4.690186   1.000000
   19       -3.344123   1.000000
   20       -3.344123   1.000000
   21       -1.465857   0.000000
   22       -1.465857   0.000000
   23       -0.343933   0.000000
   24       -0.343933   0.000000
   25        0.188173   0.000000
   26        0.188173   0.000000
   27        1.114612   0.000000
   28        1.114613   0.000000
   29        1.190933   0.000000
   30        1.190945   0.000000
   31        1.716656   0.000000
   32        1.716698   0.000000
   33        1.889255   0.000000
   34        1.889306   0.000000
   35        2.566631   0.000000
   36        2.566674   0.000000
   37        2.607391   0.000000
   38        2.607414   0.000000
   39        2.881571   0.000000
   40        2.881573   0.000000
   41        3.412485   0.000000
   42        3.412548   0.000000
   43        3.777010   0.000000
   44        3.777034   0.000000
   45        4.635544   0.000000
   46        4.635548   0.000000
   47        4.957491   0.000000
   48        4.957529   0.000000
   49        5.002576   0.000000
   50        5.002599   0.000000
   51        5.240412   0.000000
   52        5.240431   0.000000
   53        5.819232   0.000000
   54        5.819234   0.000000
   55        6.127141   0.000000
   56        6.127141   0.000000
   57        6.661292   0.000000
   58        6.661291   0.000000
   59        6.873817   0.000000
   60        6.873848   0.000000
   61        7.240802   0.000000
   62        7.240853   0.000000
   63        7.683317   0.000000
   64        7.683321   0.000000
   65        7.854131   0.000000
   66        7.854141   0.000000
   67        8.364131   0.000000
   68        8.364138   0.000000
   69        8.704019   0.000000
   70        8.704041   0.000000
   71        8.809026   0.000000
   72        8.809026   0.000000
   73        8.997781   0.000000
   74        8.997819   0.000000
   75        9.115536   0.000000
   76        9.115580   0.000000
   77        9.269226   0.000000
   78        9.269263   0.000000
   79        9.391833   0.000000
   80        9.391908   0.000000
   81        9.607982   0.000000
   82        9.607996   0.000000
   83        9.664676   0.000000
   84        9.664740   0.000000
   85        9.911156   0.000000
   86        9.911212   0.000000
   87       10.070320   0.000000
   88       10.070363   0.000000
   89       10.393672   0.000000
   90       10.393731   0.000000
   91       10.477475   0.000000
   92       10.477481   0.000000
   93       10.616525   0.000000
   94       10.616525   0.000000
   95       10.773618   0.000000
   96       10.773694   0.000000
   97       11.001493   0.000000
   98       11.001518   0.000000
   99       11.718597   0.000000
  100       11.718613   0.000000
  101       11.732307   0.000000
  102       11.732348   0.000000
  103       11.797576   0.000000
  104       11.797577   0.000000
  105       12.073836   0.000000
  106       12.073893   0.000000
  107       12.343473   0.000000
  108       12.343500   0.000000
  109       12.400428   0.000000
  110       12.400474   0.000000
  111       12.746438   0.000000
  112       12.746455   0.000000
  113       12.762141   0.000000
  114       12.762169   0.000000
  115       13.022400   0.000000
  116       13.022442   0.000000
  117       13.149202   0.000000
  118       13.149242   0.000000
  119       13.296535   0.000000
  120       13.296588   0.000000
  121       13.317923   0.000000
  122       13.317991   0.000000
  123       13.365021   0.000000
  124       13.365061   0.000000
  125       13.403783   0.000000
  126       13.403816   0.000000
  127       13.585835   0.000000
  128       13.585895   0.000000
  129       13.923644   0.000000
  130       13.923684   0.000000
  131       14.169989   0.000000
  132       14.170017   0.000000
  133       14.194307   0.000000
  134       14.194335   0.000000
  135       14.459620   0.000000
  136       14.459679   0.000000
  137       14.487928   0.000000
  138       14.488024   0.000000
  139       14.607565   0.000000
  140       14.608011   0.000000
  141       14.678294   0.000000
  142       14.678625   0.000000
  143       14.828606   0.000000
  144       14.829755   0.000000
