Ge2 S2                                  
   1.00000000000000     
     3.6410803001967427    0.0000000000000000    0.0000000000000000
     0.0000000000000000    4.5437955719862080    0.0000000000000000
     0.0000000000000000    0.0000000000000000   25.3960572412179708
   Ge   S 
     2     2
Direct
  0.2500000001248921  0.3721446452043257  0.5644230521348089
  0.7500000594897713  0.8721446452374866  0.4628328107789104
  0.7500000594897713  0.0095345329005635  0.5554022510326224
  0.2500000001248921  0.5095345320493831  0.4718535523017618
 
  0.00000000E+00  0.00000000E+00  0.00000000E+00
  0.00000000E+00  0.00000000E+00  0.00000000E+00
  0.00000000E+00  0.00000000E+00  0.00000000E+00
  0.00000000E+00  0.00000000E+00  0.00000000E+00
